 # Version information for this restart file 
 # current date 2022-11-29 20:46:08.227
 # current working dir /scratch/work/courses/CHEM-GA-2671-2022fa/mf4024/comp-lab-class/Week12/Runs/Protons
 # Program compiled at                              Sat Dec 12 18:27:15 EST 2020
 # Program compiled on                                         cs001.nyu.cluster
 # Program compiled for                                                nyu-intel
 # Source code revision number                                       git:8c64c6e
 &GLOBAL
   PRINT_LEVEL  LOW
   PROJECT_NAME proton_aimd_1ns_every0.5fs
   RUN_TYPE  MD
   WALLTIME 21600
 &END GLOBAL
 &MOTION
   &GEO_OPT
     OPTIMIZER  BFGS
     MAX_ITER  100
     MAX_DR     3.0000000000000001E-03
     &BFGS
     &END BFGS
   &END GEO_OPT
   &MD
     ENSEMBLE  NVT
     STEPS  2000
     TIMESTEP     4.9999999999999994E-01
     STEP_START_VAL  1997
     TIME_START_VAL     9.9849999999998249E+02
     ECONS_START_VAL    -1.1027290848025568E+03
     TEMPERATURE     3.0000000000000000E+02
     &THERMOSTAT
       TYPE  GLE
       REGION  MASSIVE
       &GLE
         NDIM  5
         A_SCALE     1.0000000000000000E+00
         A_LIST     1.8595758612559999E+02    2.7263853498399998E-01    1.1526100454610001E+01   -3.6414578262600003E+01 \
             2.3173375816020001E+02
         A_LIST    -2.7809524712060002E-01    8.5951591808710006E-05    7.2189048017650004E-01   -1.9844539343859999E-01 \
             4.2409257583420001E-01
         A_LIST    -1.4825808131210000E+01   -7.2189048017650004E-01    1.3590902121280000E+00    5.1498896280349999E+00 \
            -9.9949268450990001E+00
         A_LIST    -1.0372189126880000E+01    1.9844539343859999E-01   -5.1498896280349999E+00    2.6661910891169999E+01 \
             1.1507715495310000E+01
         A_LIST     2.1801346360420001E+02   -4.2409257583420001E-01    9.9949268450990001E+00   -1.1507715495310000E+01 \
             3.0958394565589998E+02
         &THERMOSTAT_ENERGY
               4.3681335172879579E-03
               4.0797903045568006E-03
               2.1822306196089538E-03
               5.7137334700132474E-03
              -1.4271466476843769E-02
              -4.0163285609615485E-03
              -6.2931214204873373E-03
              -5.2010999221980964E-03
               6.4968477305826890E-03
              -4.9393497319308712E-04
               1.0036895130161125E-02
               4.6073421715304205E-03
              -4.7494988561460338E-03
              -6.9821477565304999E-03
              -1.1238251784068854E-03
              -6.4698922996804997E-03
               1.4454014627341236E-02
              -1.1421170737089750E-02
               5.1839853260711426E-03
              -2.1562158211481312E-03
              -7.2455262594788919E-03
               1.1244193171636148E-02
              -1.9273436965111163E-02
              -2.5291705769797468E-03
               5.3545964661300864E-03
              -7.7492082908899879E-03
               2.5587936470209821E-03
               1.6906952708772446E-03
              -4.2758847524795645E-04
               4.0375975396234574E-03
              -2.5930879040649718E-03
              -2.5391783812532738E-03
               9.6765198630053249E-03
               4.2198072571401953E-03
               5.0855244170516433E-03
               4.5873489791352362E-03
               1.4560880262026272E-03
              -2.8844571548951995E-03
               7.3213969957839319E-04
              -2.9790073248986025E-04
               1.1659561491311926E-02
              -8.1658514572263419E-03
               9.4558337533276072E-03
               6.8951711755994485E-03
              -3.9635011778713664E-03
               5.3577705647726718E-04
              -8.3776594639360293E-03
               3.4231431253148644E-03
              -8.1021850329143232E-04
              -2.2199519231634314E-05
              -2.2598508122483292E-03
               4.3355137192785049E-03
              -1.3585709575241200E-02
              -9.7002711778994733E-04
              -8.0059587330979579E-03
               2.5474487974619436E-03
               2.5497833680800173E-03
              -7.9341282251022324E-03
               1.4369498707678027E-02
               6.2547522947562911E-03
              -8.1270117491687669E-03
              -7.0222954482983598E-03
               2.2690787605250114E-02
               3.2685788412868043E-04
               7.0789497249156962E-03
               1.5320031327881799E-03
               8.0478703995254548E-03
               1.6155676715450654E-02
              -6.5802214488753759E-03
              -7.7921425991166679E-03
              -9.5465231047244786E-03
              -3.7426736378284788E-04
              -8.0324136328968328E-04
               5.7669573765189953E-03
              -6.6991016476252840E-03
              -8.9765978086798291E-03
               1.4064021375430081E-02
              -7.6362557351700058E-04
               2.0519780419834321E-02
              -1.5528931642393841E-02
              -1.4525456898483060E-03
              -3.2477707219470062E-03
               6.2726178664321442E-03
               2.8442160622914473E-03
               7.4358468835282812E-04
               8.3853205592753968E-03
              -8.8508339024700436E-04
              -1.3094158585511250E-02
               4.3532183836208853E-04
              -1.7713414629943833E-03
              -2.4251827194811757E-03
              -7.2733777709855386E-03
               4.2408481148745909E-03
              -8.5710706549325041E-03
              -8.7106374625092638E-03
               1.1842931511802535E-02
               3.0739646333810006E-03
               2.4405737871977542E-03
               1.0265631442593201E-03
              -4.3784619169410030E-04
               1.8254823904006038E-03
              -2.8465561599554387E-03
              -3.9649961528577119E-03
               6.7712356955658987E-03
              -5.4766259394745534E-03
               1.6701614786845887E-02
               1.9550627739112744E-02
               7.7777935960716736E-03
               2.8028534201958674E-03
              -3.4452397716739501E-03
               3.1167852853854743E-03
               9.7292169539203669E-03
              -9.8837411126586616E-03
               3.8616267833440450E-03
               4.5267612714409433E-03
               2.3838247790414287E-03
              -1.0463977692230075E-02
              -1.0252004411277285E-03
               9.9518996889681266E-04
               5.5810449721970896E-03
               3.4072594459221071E-03
               4.8025348990359245E-03
               1.1206573191351982E-03
               1.1242763677930303E-02
              -1.4024422731870741E-02
              -7.0663944422104915E-03
               1.5155156188537942E-03
              -2.2863631868805362E-03
               7.7446228104490877E-04
               7.7333035157490593E-03
              -8.9858405364774338E-03
               6.4637544246859153E-03
              -1.1355579290623042E-03
               2.9924602030423635E-04
               5.5329717883356357E-03
               3.0543575145487250E-03
              -4.9753591077434066E-03
              -8.8578178919822715E-03
               1.0377835208093572E-02
              -9.1568711181539142E-03
              -4.3295165164079696E-03
               8.5530166817767359E-03
               5.5070509701290321E-03
               4.1819028862891804E-03
              -6.0119377272500416E-03
              -1.8541414355253620E-03
               6.5898291123595715E-05
               4.3887316854361504E-03
              -9.1806982542712301E-03
               3.2446319850841978E-03
              -1.2663400533520015E-02
               1.7342509923802957E-02
              -1.0541439515427386E-02
               2.2017200059475531E-03
               2.8597455401014851E-03
              -7.8189706909532358E-04
               1.6330565154920513E-03
              -2.7034813753453587E-03
              -7.6888754132312326E-03
              -3.6024614025561815E-04
               4.6775940684924194E-03
              -1.6860241090125008E-03
              -6.7719895910547067E-04
               3.3068884007798533E-03
               5.7123694465738423E-03
               2.4981450438122371E-02
               1.2508027740154020E-03
              -1.6729398085392307E-02
               6.1495869059977136E-04
              -2.6186539187041131E-03
               1.3244961233260398E-03
              -5.8795238321522917E-03
               5.7870800883534938E-03
              -1.2804126734698971E-02
               9.3107724418595456E-03
               8.4998376249474285E-03
              -7.3050259023816023E-03
              -5.1609646776543446E-03
               9.2235124693679262E-03
               1.6902660896033879E-02
               1.9146908991574409E-03
              -4.9546079862527476E-03
              -3.3818389386599232E-05
              -1.5491197493569921E-02
               1.0417202207119777E-02
              -4.3724698857810504E-03
              -1.5990574597904109E-02
               1.0784110483885301E-02
              -5.4798290459683700E-03
               1.3954865425332083E-03
               2.8803521386453635E-03
              -5.8620186092368342E-04
              -1.3067871661774748E-03
               1.8302122308853981E-02
              -5.9255614858952027E-03
              -3.9244936383458747E-03
              -1.8300646020345797E-03
               5.8286314033150540E-03
               1.1452595949130037E-03
               5.0920989498112494E-03
              -2.9120573022598968E-03
              -4.6793112311995489E-05
               5.1256356909701768E-03
               1.4770178492651640E-03
              -5.8744045415442120E-03
               6.2854355300438428E-03
              -2.4309363014425123E-03
              -1.4876778413696263E-03
               4.4855209564092433E-03
              -1.1428425307352600E-03
               5.3967898015379713E-03
              -1.0813135295319673E-02
               1.3397357057855474E-02
               2.1446857367787898E-03
               2.7849019173338410E-05
               2.0513062675030268E-03
              -4.1148015000371544E-03
               9.8097261045889082E-03
               4.2516636116366694E-03
              -3.8043680419023135E-03
               5.2271103326458233E-03
              -9.1606993597714275E-03
              -1.0779436807795494E-02
               2.0093383354404660E-03
               9.5851218990964278E-03
               3.2328830606330244E-03
               1.8838235845023829E-03
               2.7611468418549485E-03
               9.0660325653890202E-03
              -1.4467885651297899E-02
              -1.5463589729149360E-03
               5.8111916447116186E-03
               7.7232668834721274E-03
              -5.1834348883367295E-03
               1.6049245978385176E-03
              -8.5486032265919801E-04
              -3.0474932678129889E-03
               6.4633481081697950E-03
               4.3103415876567762E-03
              -2.7869211192225026E-04
               5.7334320633237994E-03
              -1.9489708810070312E-03
              -5.4489451021957928E-03
               1.6509790000184198E-03
               6.5066910082365688E-03
              -7.3055187175908123E-04
              -6.7544239990648906E-03
               7.6886583593231556E-03
              -6.8482905610364677E-04
              -9.3199072670236711E-03
               5.3568990930139213E-03
              -5.9113664566140820E-03
              -1.0394156137469491E-02
              -1.5224374985864089E-03
               5.6388841574573243E-03
              -3.0597513355151542E-03
               2.0513293923828321E-02
              -8.4599903219793795E-03
               7.0525231289894248E-03
              -2.3168900685840932E-02
               1.3701313761538077E-02
               4.5862813873089319E-04
               1.8823901233007976E-04
              -1.9349911511859774E-03
               5.5799769464407283E-03
              -5.7187972357272488E-03
               8.4178655804571026E-03
              -2.3562027167628075E-03
               1.4026741912776064E-02
               1.0549468450221448E-02
               1.5271108671336905E-02
               1.6757259045412400E-02
               1.8042163419385939E-02
               5.6395961471506087E-03
               2.5588701588700542E-03
              -4.5569448009949625E-03
              -9.1836731982587842E-03
               3.7633466589888157E-03
              -3.1921112878340097E-03
               1.5430186191208523E-02
              -9.0134260305115670E-03
              -1.1277161097486410E-02
               4.2793547704801944E-03
              -1.6415640000414804E-03
               9.2138620926504817E-04
              -5.2600711738641998E-03
               7.0897164072393918E-03
              -4.1467300827433490E-03
              -9.8740963052950832E-03
              -2.3177839860850651E-03
               7.2248646381741204E-03
               6.2371006240662386E-03
              -4.3026011395503614E-03
              -1.4452340327669125E-03
               7.2922398964176413E-04
               9.6707159593612275E-03
              -1.2568515522516033E-02
               1.2222178077460998E-02
               1.1956607355711248E-02
              -1.1974877850037171E-02
               3.5081094087711781E-03
              -3.1297358521949693E-03
               6.4564352869541288E-03
               1.1096124718533702E-02
              -2.8220508020661466E-03
              -2.6821530486124444E-03
               3.2641171545576443E-04
               5.8118250773020836E-03
              -6.9028086887732518E-03
               2.9135151549244702E-03
              -1.9941620039116196E-03
              -2.7885563506462189E-03
              -2.7492083031085100E-03
              -4.2187118643926720E-03
               3.3560993752458378E-03
               7.3233888462594110E-04
              -1.5251122983863444E-02
               8.0601040919369895E-03
              -1.6352118939733894E-02
              -7.2352901161642892E-03
               6.3083746431600576E-03
               6.0873237034456476E-03
               4.4136836242727644E-03
               5.1747757924322133E-04
              -6.9746436763160500E-03
               1.7674031206003527E-02
              -1.0915592625849566E-03
               7.2669636673687640E-03
              -3.3278345913589098E-03
               7.9493421491546451E-06
              -8.9731264481341493E-03
               5.9966875388263170E-04
               3.0828407349684384E-03
              -2.3327793207981360E-03
               4.1429169814728509E-03
               1.4936084728896441E-03
               3.2778702780575947E-03
              -1.1585329096632400E-03
               5.1489766787862924E-03
               2.5040263472908848E-03
              -9.6366051173333508E-03
               6.6622331363962580E-03
               4.1198089648422859E-03
              -2.4212166286356363E-04
              -7.1839049971415981E-03
               3.3471107857036900E-03
               3.1256765262486956E-03
              -1.2755233099283095E-02
               9.0618596207517697E-03
               4.3633002002591726E-03
              -6.7746359519864797E-04
               1.4118143464617531E-03
              -1.1735265296150857E-02
               3.4772911681045632E-03
               4.0787792377689359E-03
               7.8357006332486405E-04
               6.2331873633987220E-04
              -1.2677642853487967E-02
              -3.9870956227403640E-03
               5.2876848974057747E-03
               5.4748600563609825E-03
              -4.5342058498911032E-03
               1.3572560183266377E-02
               3.1202168109505947E-05
              -6.5947837924468528E-03
              -2.3818635877606367E-03
               8.1627469742739742E-03
              -1.6950711777601690E-03
              -1.3377394132622853E-02
               6.2653578948205528E-03
               1.5696809498214812E-03
               2.7780047107863032E-03
               9.5972019177758855E-04
              -1.3521284714590551E-03
               5.5138208735889382E-03
               1.0163987926629998E-02
              -5.9578779607273313E-03
              -1.6980414323239181E-02
               9.1018751183566838E-04
               9.6067740427879609E-03
               3.3499155559783647E-03
               6.7179652066873020E-03
              -3.0027828428585979E-03
              -3.3643060764248999E-03
              -1.1216463034932480E-02
              -4.2525033333353432E-03
               6.0799155927543837E-03
              -6.6759891590925909E-03
               4.3100484596325841E-03
               5.1465637973892942E-03
              -5.5142578704968472E-03
               5.2964248496726457E-03
               2.1112760968437423E-03
              -4.3211050924548229E-03
               1.0223695902591933E-02
              -1.8645817636632172E-03
              -1.5021276636266508E-03
              -2.0229733537144483E-03
              -1.6718636456479305E-03
              -7.2825922836777628E-04
               5.5832220711802714E-03
              -1.4878864559969794E-03
              -8.9373094668443731E-03
              -1.8624578192392108E-03
               4.7996097573837476E-03
              -1.4959894296671583E-03
              -4.2788655669130015E-03
              -3.0611276817751280E-03
               2.3436205077173498E-03
              -1.0774453353522887E-03
               3.5031112627452866E-04
              -4.8849848416612834E-03
              -7.7899652305332386E-04
              -4.6643337842114272E-03
               7.7813353916434836E-03
               9.7790145937198553E-04
              -8.7025590610477900E-04
               1.7762965797645405E-03
               1.9360674747773499E-03
              -4.0694678867899195E-03
               4.2687687007109771E-03
               9.3607769210989362E-03
              -7.4984706096240267E-03
              -2.1095315809594090E-03
               1.2147713284604541E-02
              -8.3725946534983081E-03
               7.1643639258055258E-04
               8.3235176653287044E-04
               7.2866128064191940E-03
              -2.5018077506265488E-03
              -2.1588383944278629E-03
              -4.9028925626767896E-03
              -1.2948371143739550E-02
               1.0433352563077576E-02
               5.7315117208542226E-03
              -1.3315419736562900E-03
              -6.8945271813434083E-03
              -3.4755419868187387E-03
              -8.9214917428325682E-03
               4.2668430118528999E-03
               5.6493661291266966E-03
               3.3100270079458845E-03
               1.0009464640582883E-04
               4.9879957644421709E-04
               6.7980010705314927E-05
               8.0051089916560805E-03
               4.9848246638658231E-03
               1.1091154553205525E-02
               3.8781081657959311E-03
              -5.6746335630615151E-03
              -5.9413452833648626E-03
              -8.3836616361858164E-03
               3.3214600205015983E-03
               2.8424718364178604E-03
               1.8724295291262479E-03
               1.4137641085376287E-04
              -3.3746633438110994E-03
              -2.3643117630370213E-02
               5.4629950197448368E-03
              -9.6986224385773017E-03
               2.0933824522737968E-02
               1.2192806226541763E-02
              -2.2500374258515228E-03
               4.3240163918859551E-03
               4.6405417120651363E-04
              -3.5255623543433991E-03
              -9.3605299356481868E-03
               2.8647875028743722E-04
               1.0644411051939728E-02
              -6.2161788664299349E-03
              -7.8815481091091179E-03
              -2.5185966140203603E-03
               5.3577311801092176E-03
              -2.7501030105860961E-03
              -7.9971937464373404E-03
               1.9641208856470492E-02
               2.4137793322376914E-03
               2.9966505878426652E-03
               7.1171020499881743E-03
              -5.6566673371952680E-05
               5.3273364879180543E-03
              -6.8710995268322188E-03
               1.4188781558677767E-02
               5.0209541016184873E-03
               8.7016339576057467E-05
              -1.7343490534327500E-03
              -4.2019130030388581E-03
              -3.1046571282487287E-03
               1.2835917021048486E-02
               2.0829828217986076E-03
               7.5685066943479212E-03
               9.0490988799677256E-03
               1.1118247796512623E-02
              -9.6744991989380306E-03
               7.7406390093633353E-04
               2.8553791077994797E-03
               2.4029652932779279E-03
              -7.4109876946090222E-03
               7.0411547490143280E-04
               6.4881532788185784E-03
              -4.5277382510399596E-03
               1.7201378896934152E-02
              -2.2653210525859942E-02
               1.3526254176064453E-02
               4.5652109619344818E-03
              -1.1868518736406524E-02
              -5.5634603160498765E-03
              -1.4013904856449922E-04
               8.1495419362318747E-03
               3.8580230671252419E-03
              -1.6447063596009338E-03
               1.0039807889891082E-02
              -1.6719276754301889E-03
              -4.3119819608604957E-03
               7.0054397249919567E-03
              -2.1007056574703878E-02
              -6.5991716579841993E-03
              -1.7942566952282427E-03
               8.0952831733274583E-03
               1.6877380928270617E-02
              -1.9984077812106503E-02
              -3.6718173406154898E-03
               1.4867193674513082E-03
               2.0701151931904202E-03
               9.9151432997568521E-04
               5.5158886854189959E-03
              -6.9076217534839186E-03
              -2.7659735246431828E-03
               7.8608045433821491E-03
              -2.2596492677386991E-03
              -4.6813173786412017E-03
               3.4810990683392939E-03
              -8.1418461693818465E-03
              -6.6273798270713967E-03
              -2.2624517153435274E-03
              -4.7058950439489086E-03
              -2.0679029914726951E-03
              -1.6271564407934814E-03
               6.5337487498528073E-03
               4.1418290384338261E-03
               6.2122905421658752E-03
               3.0932090046444944E-03
              -1.0824010837263405E-02
               2.4268347675578954E-03
               4.0943040535565428E-04
              -6.3787852238688372E-03
              -2.3767762069894930E-03
               9.2125980060690088E-03
               1.0367993521837546E-02
               3.3043067720700103E-03
               1.5415449467907951E-02
              -9.4467567307767262E-03
              -3.3013878306953266E-03
              -4.1850201818132817E-03
               4.1902298134780767E-03
              -2.2794272336556943E-03
              -7.0931639006818958E-03
               3.8512264402094276E-03
               1.4074592430666732E-02
               1.0056086501232436E-02
               6.2372918438979125E-04
               5.1716413883769741E-03
              -1.2454151157635484E-03
              -8.0661588176507193E-05
              -4.8819144878304785E-03
               5.0292631849321477E-04
               1.7578892306370172E-03
              -4.1640316567941567E-03
              -7.1261885937225463E-03
               5.0266078651002464E-03
              -3.0995149461375835E-03
               5.0846648991609278E-04
              -8.6895604175137153E-03
              -1.3494618778285400E-02
               3.1355993328752107E-03
               1.3720892169544379E-02
               1.1183966444090860E-02
              -9.4133185750754442E-03
               1.8070354123520583E-03
         &END THERMOSTAT_ENERGY
         &RNG_INIT
Wiener process for Thermostat # 1        1 F T T   3.7280401166127353E-01        2396824340.0        1285798124.0        1970812289.0        4262378425.0        2500496477.0        3105761546.0             12345.0             12345.0             12345.0             12345.0             12345.0             12345.0             12345.0             12345.0             12345.0             12345.0             12345.0             12345.0
Wiener process for Thermostat # 2        1 F T T  -2.8031459711754392E-01        1517340215.0         764337745.0        1777988352.0        1272471177.0        3093987526.0        2495380513.0        3692455944.0        1366884236.0        2968912127.0         335948734.0        4161675175.0         475798818.0        3692455944.0        1366884236.0        2968912127.0         335948734.0        4161675175.0         475798818.0
Wiener process for Thermostat # 3        1 F T T   7.0414863813957229E-01        1874984675.0        3540139467.0        3102430019.0        1608426380.0         643336117.0        1230365417.0        1015873554.0        1310354410.0        2249465273.0         994084013.0        2912484720.0        3876682925.0        1015873554.0        1310354410.0        2249465273.0         994084013.0        2912484720.0        3876682925.0
Wiener process for Thermostat # 4        1 F T T   2.2606224243119818E-01        3416187057.0        1637601412.0         393440280.0        2948182120.0        3407482107.0        2343296956.0        2338701263.0        1119171942.0        2570676563.0         317077452.0        3194180850.0         618832124.0        2338701263.0        1119171942.0        2570676563.0         317077452.0        3194180850.0         618832124.0
Wiener process for Thermostat # 5        1 F T T  -1.0267294306732384E+00         315072143.0        4137263975.0        4196656129.0        1282237791.0        3639735469.0        1937530485.0        1597262096.0        3906379055.0        3312112953.0        1016013135.0        4099474108.0         275305423.0        1597262096.0        3906379055.0        3312112953.0        1016013135.0        4099474108.0         275305423.0
Wiener process for Thermostat # 6        1 F T T   9.2624835653208748E-01        3222219212.0        3105331301.0        2094058484.0        2511776071.0        3719186732.0        3505559269.0          97147054.0        3131372450.0         829345164.0        3691032523.0        3006063034.0        4259826321.0          97147054.0        3131372450.0         829345164.0        3691032523.0        3006063034.0        4259826321.0
Wiener process for Thermostat # 7        1 F T T  -4.6721006089689310E-01        2921304001.0        3534845789.0         764942181.0        2980414860.0        2807768180.0         274774080.0         796079799.0        2105258207.0         955365076.0        2923159030.0        4116632677.0        3067683584.0         796079799.0        2105258207.0         955365076.0        2923159030.0        4116632677.0        3067683584.0
Wiener process for Thermostat # 8        1 F T T   4.8809173354813140E-01        3327178806.0        3682317356.0        2663069382.0         319044460.0        3975670735.0         562702070.0        3281794178.0        2616230133.0        1457051261.0        2762791137.0        2480527362.0        2282316169.0        3281794178.0        2616230133.0        1457051261.0        2762791137.0        2480527362.0        2282316169.0
Wiener process for Thermostat # 9        1 F T T  -8.1805399140306756E-01         433221438.0         349071730.0        2033385903.0        2639944804.0        3988392127.0        3801627598.0        3777646647.0        1837464056.0        4204654757.0         664239048.0        4190510072.0        2959195122.0        3777646647.0        1837464056.0        4204654757.0         664239048.0        4190510072.0        2959195122.0
Wiener process for Thermostat # 10       1 F T T  -2.7062828385550008E-01        2290601073.0        1666814614.0        3289919364.0        2930088785.0        1500929831.0        1860303943.0        4215590817.0        3862461878.0        1087200967.0        1544910132.0         936383720.0        1611370123.0        4215590817.0        3862461878.0        1087200967.0        1544910132.0         936383720.0        1611370123.0
Wiener process for Thermostat # 11       1 F T T   6.8652417552969780E-01        2151060734.0         580174056.0        1748210725.0         399674445.0        1879492130.0        2741776977.0        1683636369.0         362165168.0         814316280.0         869382050.0         980203903.0        2062101717.0        1683636369.0         362165168.0         814316280.0         869382050.0         980203903.0        2062101717.0
Wiener process for Thermostat # 12       1 F T T   1.2985463821691814E+00        3478492904.0        1830493925.0          17364685.0        2058676739.0        2676153401.0        4087350495.0         272317999.0         166758548.0         310112982.0         201045826.0        1680231254.0         118290799.0         272317999.0         166758548.0         310112982.0         201045826.0        1680231254.0         118290799.0
Wiener process for Thermostat # 13       1 F T T   2.0061703114922356E+00        2097018817.0        1300727704.0         367347443.0         582130443.0        2824054692.0        3111690587.0        2245755202.0        1652682525.0        2865544364.0         721509566.0         209733568.0         592362218.0        2245755202.0        1652682525.0        2865544364.0         721509566.0         209733568.0         592362218.0