 # Version information for this restart file 
 # current date 2022-11-29 20:46:16.516
 # current working dir /scratch/work/courses/CHEM-GA-2671-2022fa/mf4024/comp-lab-class/Week12/Runs/Protons
 # Program compiled at                              Sat Dec 12 18:27:15 EST 2020
 # Program compiled on                                         cs001.nyu.cluster
 # Program compiled for                                                nyu-intel
 # Source code revision number                                       git:8c64c6e
 &GLOBAL
   PRINT_LEVEL  LOW
   PROJECT_NAME proton_aimd_1ns_every0.5fs
   RUN_TYPE  MD
   WALLTIME 21600
 &END GLOBAL
 &MOTION
   &GEO_OPT
     OPTIMIZER  BFGS
     MAX_ITER  100
     MAX_DR     3.0000000000000001E-03
     &BFGS
     &END BFGS
   &END GEO_OPT
   &MD
     ENSEMBLE  NVT
     STEPS  2000
     TIMESTEP     4.9999999999999994E-01
     STEP_START_VAL  1998
     TIME_START_VAL     9.9899999999998238E+02
     ECONS_START_VAL    -1.1027290848025568E+03
     TEMPERATURE     3.0000000000000000E+02
     &THERMOSTAT
       TYPE  GLE
       REGION  MASSIVE
       &GLE
         NDIM  5
         A_SCALE     1.0000000000000000E+00
         A_LIST     1.8595758612559999E+02    2.7263853498399998E-01    1.1526100454610001E+01   -3.6414578262600003E+01 \
             2.3173375816020001E+02
         A_LIST    -2.7809524712060002E-01    8.5951591808710006E-05    7.2189048017650004E-01   -1.9844539343859999E-01 \
             4.2409257583420001E-01
         A_LIST    -1.4825808131210000E+01   -7.2189048017650004E-01    1.3590902121280000E+00    5.1498896280349999E+00 \
            -9.9949268450990001E+00
         A_LIST    -1.0372189126880000E+01    1.9844539343859999E-01   -5.1498896280349999E+00    2.6661910891169999E+01 \
             1.1507715495310000E+01
         A_LIST     2.1801346360420001E+02   -4.2409257583420001E-01    9.9949268450990001E+00   -1.1507715495310000E+01 \
             3.0958394565589998E+02
         &THERMOSTAT_ENERGY
               4.9538062090036770E-03
               4.5928326829763324E-03
               1.7106979994662343E-03
               5.8543623288424898E-03
              -1.3961092203180677E-02
              -4.0486867687297562E-03
              -6.1223527548982864E-03
              -4.8317197669196458E-03
               6.4045438896418675E-03
              -2.9466579048681489E-04
               1.0018368475506511E-02
               4.6345568715795600E-03
              -5.3929607582685474E-03
              -7.0178493706900651E-03
              -1.1258202826624957E-03
              -5.9458569341380137E-03
               1.4225870536680963E-02
              -1.0809039325510661E-02
               5.1121124055534088E-03
              -2.2099750588656470E-03
              -7.0142526479092552E-03
               1.1682783762565161E-02
              -2.0162856391487613E-02
              -2.3623119316208874E-03
               5.4543901812567994E-03
              -7.5537400642076407E-03
               2.1596183331191871E-03
               1.6334350468855891E-03
              -6.3868466349450081E-04
               4.0857665865288422E-03
              -2.5910463629794283E-03
              -2.7453187387597431E-03
               9.6999259670893078E-03
               4.1746313992055036E-03
               5.1752769273488760E-03
               4.5278323938740721E-03
               1.4089598974398624E-03
              -3.0465459257987509E-03
               7.3041274759855310E-04
               3.1745833967414413E-04
               1.1697919258289268E-02
              -8.1458819082104068E-03
               8.5912973452322450E-03
               6.8551851450860315E-03
              -3.9830768109713243E-03
              -6.4181582267718918E-05
              -8.7621709289272577E-03
               2.9864436127437009E-03
              -6.9013025637448930E-04
               2.8192320376373435E-04
              -2.2688587674408148E-03
               4.1398263882940498E-03
              -1.3785085658630141E-02
              -7.6782255498726419E-04
              -8.3180927804852658E-03
               2.5677577975342487E-03
               2.6755852698764266E-03
              -7.9191928456233442E-03
               1.4283349877207573E-02
               6.1376296709926550E-03
              -8.3441144435183259E-03
              -6.4388198860172502E-03
               2.2458165756299414E-02
               2.5347879412709391E-04
               7.2113931965489004E-03
               1.5850983339951827E-03
               8.1967116762506897E-03
               1.6350389088974956E-02
              -6.8153626616730724E-03
              -7.2068329907586035E-03
              -9.5111093482738180E-03
              -3.2704265599445834E-04
              -5.9728143167795853E-04
               6.3086488571228779E-03
              -6.7188950824651978E-03
              -8.6215904401887346E-03
               1.4376032092679418E-02
              -9.3274126250253225E-04
               2.0425697616272859E-02
              -1.5471317134882680E-02
              -1.3702983972206013E-03
              -3.3088019079232380E-03
               6.0431779109303817E-03
               2.8831584463390606E-03
               7.3945178860594380E-04
               7.9954656828479850E-03
              -8.1582612067009790E-04
              -1.2893789321648468E-02
               1.7976001529359771E-04
              -1.7055212633691544E-03
              -2.0218436047433541E-03
              -7.3008411729630976E-03
               4.2395840905700387E-03
              -8.5732943995296511E-03
              -8.9522149706279478E-03
               1.1460809327071393E-02
               5.6336230299512333E-03
               2.4703174288379644E-03
               6.4589373394691543E-04
              -4.5749944147309549E-04
               1.7958055282081690E-03
              -3.0237125613280470E-03
              -3.9032292139498121E-03
               6.9845645779985626E-03
              -5.4925151657983550E-03
               1.6593314390030416E-02
               1.9324380870716754E-02
               7.3430013012172439E-03
               2.8171607623734109E-03
              -3.4126350573161512E-03
               3.2439816958170645E-03
               9.5395695982324735E-03
              -9.7767578659700202E-03
               3.9393615831640662E-03
               4.4381714880219201E-03
               2.3694890438219021E-03
              -1.0433318007221732E-02
              -5.7785223668133405E-04
               1.0007339974075641E-03
               5.1624370117860727E-03
               3.2989404777342204E-03
               4.4471120984431022E-03
               1.2030012568923101E-03
               1.1259904781570414E-02
              -1.3990064063090033E-02
              -6.9700377653757212E-03
               1.4671253088988864E-03
              -2.1346390171646241E-03
               1.2053529703007090E-03
               7.7382648168111733E-03
              -9.2461009180779975E-03
               6.3058096815351598E-03
              -1.1287614786745627E-03
               7.9848672765104613E-04
               5.3857300043395600E-03
               3.4584542420842534E-03
              -4.4145413550375221E-03
              -8.1214594236955935E-03
               1.0338789221827455E-02
              -9.1946798515129147E-03
              -4.1775935359407114E-03
               8.5414338151685865E-03
               4.8232571397498428E-03
               4.3398825477551119E-03
              -6.0646878962630499E-03
              -1.8122465296971555E-03
               4.9862230899320775E-04
               4.4090265673778009E-03
              -9.0597656092820198E-03
               3.3488784406137586E-03
              -1.2685327360185444E-02
               1.7149700256546555E-02
              -1.0235615336692093E-02
               2.6810102094001823E-03
               2.7457271537492281E-03
              -6.9365591498209015E-04
               1.8949575566913548E-03
              -1.9950628222962143E-03
              -7.6958575152389361E-03
              -5.1410506924202373E-04
               4.2200230211740346E-03
              -1.7187186166098176E-03
              -8.5435150906034178E-04
               3.5880710679901131E-03
               5.0740445627779941E-03
               2.5206968701919259E-02
               1.3751329431947862E-03
              -1.6890450384635394E-02
               8.0409662811764277E-04
              -2.6548016663118876E-03
               1.4256812630848588E-03
              -5.8354499587789472E-03
               5.8563592831805478E-03
              -1.2703675274241544E-02
               9.1765960185563409E-03
               8.6854405014579888E-03
              -7.1966452460692359E-03
              -5.7580750120674413E-03
               9.3327164916495991E-03
               1.6467089932421401E-02
               2.0524278244187684E-03
              -4.9256631999396606E-03
              -1.5508030419552829E-04
              -1.4945213684238984E-02
               1.0400429272460520E-02
              -3.4576557053911019E-03
              -1.6118350494624116E-02
               1.0137211240807286E-02
              -5.5038333502508618E-03
               1.6856323483810480E-03
               3.2757314463763062E-03
              -1.0701274068069093E-03
              -6.3378119319365740E-04
               1.8249829596790720E-02
              -5.8382851415999786E-03
              -3.7384405729514215E-03
              -1.9180397838774259E-03
               4.2664860788804212E-03
               1.2677109562444456E-03
               5.4001277216737973E-03
              -2.9341427838836050E-03
              -1.2619365551405913E-04
               5.1848744991337030E-03
               1.5331773629711884E-03
              -5.0788189270213361E-03
               5.1327740249740737E-03
              -2.2931619151095456E-03
              -1.6257183258058803E-03
               5.1439094267773881E-03
              -1.1543976651396490E-03
               5.4058188005313996E-03
              -1.0676787929134715E-02
               1.3291112693426498E-02
               2.0205718885585619E-03
               1.9886063927791221E-04
               1.8423839210933253E-03
              -4.0109041705439358E-03
               9.6709578448675795E-03
               4.5073829985644367E-03
              -3.7988481355831793E-03
               4.7254761426408862E-03
              -9.2492303787075868E-03
              -1.0371280966679827E-02
               2.2881156048208582E-03
               9.5431656194220303E-03
               3.0906844955445115E-03
               2.0435786495838558E-03
               3.0831807232825411E-03
               9.2929998123131591E-03
              -1.4604084721859921E-02
              -1.6143701414611706E-03
               5.3245935985718439E-03
               8.4332619916835851E-03
              -4.9876011402745033E-03
               1.7568308878122879E-03
              -1.2750570217768095E-03
              -3.0219735816689334E-03
               6.7561356764932815E-03
               4.4954795731735643E-03
              -4.2580205032024165E-04
               5.6500459717834664E-03
              -1.9149212381166937E-03
              -5.4848278521973911E-03
               1.7874341364864268E-03
               6.7498757315629567E-03
              -5.8918806471438862E-04
              -7.7510340696303262E-03
               8.0622569585796205E-03
              -7.5856750052575835E-04
              -9.2244383119654792E-03
               5.5297287641411577E-03
              -6.2527105411483916E-03
              -1.1252391230546221E-02
              -1.9329344543245991E-03
               5.8851790483833962E-03
              -2.8612451445706451E-03
               2.0466004442525349E-02
              -8.8646009661291717E-03
               6.5703618054187077E-03
              -2.3339476614112124E-02
               1.3876566197993233E-02
               5.7507865552242445E-04
               4.2710476719864195E-04
              -1.9129668425856806E-03
               5.4126452574163545E-03
              -4.5026353970076451E-03
               8.4530499595014616E-03
              -2.9441383165540232E-03
               1.4008196906384322E-02
               1.0615803544194918E-02
               1.5208419488485329E-02
               1.6566765203352839E-02
               1.8400483772734472E-02
               6.0951864417852957E-03
               3.1054652290200351E-03
              -4.5788759505564925E-03
              -8.9782790816892704E-03
               3.8108250911222073E-03
              -3.1300366877322766E-03
               1.5352044692302917E-02
              -9.1421702921655988E-03
              -1.1494051879254622E-02
               3.8931099602731957E-03
              -1.9584043842059149E-03
               7.4947073568339356E-04
              -5.0142744181105739E-03
               6.7269253159916520E-03
              -4.1385927781905632E-03
              -9.8585955790661140E-03
              -2.3332836774456879E-03
               9.4517110523912630E-03
               6.7026094390182124E-03
              -3.8999339512886290E-03
              -1.1601894196602040E-03
               7.7035554745234747E-04
               9.4773122735373055E-03
              -1.3186299579599711E-02
               1.2186713353248248E-02
               1.1971382545958524E-02
              -1.2032698912798696E-02
               4.5175454452805819E-03
              -3.3736878264763910E-03
               6.3637233806336626E-03
               1.1079912226823642E-02
              -2.5569811498772359E-03
              -2.8194721128485794E-03
               2.1973498770828706E-04
               6.1926653969452284E-03
              -6.8407710680130265E-03
               2.6279490800696047E-03
              -2.0424767434836025E-03
              -2.8446399142345031E-03
              -2.5461753541725744E-03
              -4.2216956684146606E-03
               3.0941748862250108E-03
               7.8462122362974200E-04
              -1.4328178346204168E-02
               7.9774505258580920E-03
              -1.6401170799853201E-02
              -7.2573900928499160E-03
               6.2416310194596761E-03
               5.7652137117372351E-03
               4.4364405145970471E-03
               5.1481436276789997E-04
              -7.1532618694532847E-03
               1.6508277779870024E-02
              -1.1725818615228179E-03
               7.8328171126301853E-03
              -3.4156338336811479E-03
               2.4308690641619476E-04
              -8.0265138168650642E-03
               8.2862041474126007E-04
               3.3841287283811858E-03
              -3.2033403959132100E-03
               4.1208082990481058E-03
               1.5530879291920340E-03
               3.3315878674738683E-03
              -7.2055026719107214E-04
               5.1750436693942543E-03
               2.7962668748297121E-03
              -9.6417904395388852E-03
               5.6550532574510485E-03
               4.1280392728810572E-03
              -2.0863881346876048E-04
              -6.8469708465894374E-03
               4.5593879087670458E-03
               3.9222782531404907E-03
              -1.2736693782770678E-02
               9.0632472581982856E-03
               4.1676715740778794E-03
              -7.3400322140272168E-04
               1.1685194644922821E-03
              -1.1966815320190101E-02
               4.5684376908462793E-03
               4.0799699503827015E-03
               8.5460043152795504E-04
               5.4368324344436091E-04
              -1.2685988531213322E-02
              -3.7068137625360506E-03
               5.7738653691528736E-03
               5.4334314859427416E-03
              -3.9284318541628199E-03
               1.3420495308555580E-02
               7.6132223981913020E-04
              -6.7134723628583361E-03
              -2.6309925862211528E-03
               8.0110132528732336E-03
              -1.7403232928850465E-03
              -1.3706986322704631E-02
               6.2297992848049065E-03
               1.7996221799213095E-03
               2.1965652427124067E-03
               1.1427583593749248E-03
              -1.4404717183008188E-03
               5.2970633453231740E-03
               1.1142165738954728E-02
              -5.5182293801690893E-03
              -1.6967393837509247E-02
               1.0656229363244446E-03
               9.6848580045371460E-03
               3.2576169281985194E-03
               6.0853792996920569E-03
              -4.0315533725316021E-03
              -3.3507200344541910E-03
              -1.1796012940621270E-02
              -4.4437994075029186E-03
               6.0004801704998580E-03
              -6.5557188521531964E-03
               4.2284918055864058E-03
               5.1664803041052820E-03
              -5.9851838119091222E-03
               5.1421247004273850E-03
               2.3016393236295215E-03
              -4.3176960588475937E-03
               1.0285895428549109E-02
              -1.9280314966812285E-03
              -1.3559451132181518E-03
              -2.1076639193800578E-03
              -5.9835011006573440E-04
              -5.6603549875140931E-04
               5.8310601413268720E-03
              -1.1469136910484943E-03
              -9.1409189680514424E-03
              -1.8229406701789899E-03
               4.9882832368352619E-03
              -1.3991172735074249E-03
              -4.3456252231074272E-03
              -3.5364457134251480E-03
               2.5579575587108263E-03
              -1.0797655003607731E-03
               3.4466869172985505E-04
              -4.9330748168300367E-03
              -1.1859299517222007E-03
              -4.1694252965635645E-03
               7.8987774460911129E-03
               1.5200862174678184E-03
              -2.0978737620907183E-03
               2.1405713611323310E-03
               2.4678339568653734E-03
              -4.0267908574361765E-03
               3.8978930725964431E-03
               9.0478277733667782E-03
              -7.3921571561716979E-03
              -2.1414983231964431E-03
               1.2546175440376920E-02
              -8.4634737389522510E-03
               7.0771703234202832E-04
               7.9127524544541185E-04
               7.1957466793621666E-03
              -2.5344753027569757E-03
              -1.9136086829354062E-03
              -4.8645297334050401E-03
              -1.3888961882860764E-02
               1.0232755538703646E-02
               5.8715467761658617E-03
               1.0566789987281411E-04
              -6.4397619139967234E-03
              -3.4589802521780406E-03
              -8.8189069779950665E-03
               4.1676347213367229E-03
               5.8580988915440833E-03
               2.8656155820427805E-03
               1.4699726825992822E-04
               2.8628251902924461E-04
               9.9106652658956118E-05
               8.1149439670718752E-03
               5.6108781342120839E-03
               1.0991621167384634E-02
               3.3812491261495333E-03
              -5.6596356032706293E-03
              -6.2805411797437535E-03
              -8.3757582638934944E-03
               3.2268414700432646E-03
               4.2288031233516567E-03
               1.9413626549128567E-03
               1.4179742285511950E-04
              -3.1710593673407498E-03
              -2.3468027861041154E-02
               5.6276574270956638E-03
              -9.7611508356038566E-03
               2.1230142541596445E-02
               1.2392064864679718E-02
              -2.2511367974340887E-03
               4.1741985288344290E-03
               3.3874877560986555E-04
              -3.1932145564718107E-03
              -9.3552732419010225E-03
               2.6761883478332998E-04
               1.0432136169800004E-02
              -6.2166300257262431E-03
              -7.5349749860444595E-03
              -2.7942543442533293E-03
               4.6286846704943520E-03
              -2.7143042576622824E-03
              -7.8815284382242144E-03
               1.9000382182356241E-02
               2.3718985348835831E-03
               3.1164565789801812E-03
               7.3185742645443721E-03
               2.5576172703060365E-04
               5.3200530339513183E-03
              -6.2189997096165081E-03
               1.3190189359818456E-02
               5.0432837311203413E-03
              -3.6427993443533370E-04
              -1.2189260874691846E-03
              -4.3565654898452735E-03
              -2.7863119067882886E-03
               1.3054593903688915E-02
               2.1461495494499816E-03
               7.9951337927685190E-03
               8.8228590046865417E-03
               1.0895546923536165E-02
              -9.5536811216167007E-03
               4.6054730803106372E-04
               2.8792566398494189E-03
               3.4704625062976701E-03
              -7.3311765020092224E-03
               7.6222689389202666E-04
               6.3856487377020651E-03
              -3.9155842053653876E-03
               1.7187779409036336E-02
              -2.2774947687615996E-02
               1.3918911503717823E-02
               4.5257950373201721E-03
              -1.1836062952375156E-02
              -5.6059194260607362E-03
              -1.9201765563082031E-04
               7.7789480548220678E-03
               3.9492644814617325E-03
              -1.7767568535966127E-03
               1.0732554925831875E-02
              -2.0480656219096561E-03
              -4.1110461506425359E-03
               6.9440182995118942E-03
              -2.0995710561598102E-02
              -6.5510471905467563E-03
              -1.7403232461635305E-03
               8.0873676997592105E-03
               1.7113204096152024E-02
              -1.9604396188852895E-02
              -4.0387513479056315E-03
               1.4829769033985764E-03
               2.0890876504851960E-03
               4.7097734179126519E-04
               5.5065833498378338E-03
              -6.8052258908239318E-03
              -3.0450353182474533E-03
               8.7637265549346272E-03
              -2.3820252803817160E-03
              -4.8077034880637118E-03
               3.3788903766527392E-03
              -7.8846829407238726E-03
              -6.0978668858887681E-03
              -1.8434056868537278E-03
              -4.6653660368804134E-03
              -2.0336447866361141E-03
              -1.5489375743953963E-03
               6.6378254804797913E-03
               4.1394341863628149E-03
               6.1028054614336085E-03
               3.2079673306374297E-03
              -1.0826161241143377E-02
               2.4602529627006987E-03
               4.4116283091211850E-04
              -6.5635112263456663E-03
              -2.1582985977001696E-03
               8.7449157559467642E-03
               1.0455545506130303E-02
               3.2654830380813306E-03
               1.5457405398599857E-02
              -9.0240247966168526E-03
              -3.2123027186512624E-03
              -4.3139475374195345E-03
               4.1561193979872671E-03
              -2.0396270179532127E-03
              -7.1321740894717952E-03
               3.8075008169722595E-03
               1.4222648440897498E-02
               1.0063006095705837E-02
               9.2822014153866859E-04
               5.4057887389423707E-03
              -1.2461695561959267E-03
               1.6361445482326235E-04
              -5.1301755455528423E-03
               6.5169889080713122E-04
               1.8066804811635985E-03
              -4.2512367619871516E-03
              -7.1061989820867255E-03
               4.8429731863027341E-03
              -3.1291751295822313E-03
               4.9307870017273412E-04
              -7.6586397493848329E-03
              -1.3306693127881726E-02
               3.2817752730334875E-03
               1.4147244963126802E-02
               1.1227017984643622E-02
              -9.5195594932342906E-03
               1.6788877182065279E-03
         &END THERMOSTAT_ENERGY
         &RNG_INIT
Wiener process for Thermostat # 1        1 F T T  -1.5601997779545997E+00        4027757407.0        1559045809.0        3403552754.0        1703120254.0         453778739.0        2861026355.0             12345.0             12345.0             12345.0             12345.0             12345.0             12345.0             12345.0             12345.0             12345.0             12345.0             12345.0             12345.0
Wiener process for Thermostat # 2        1 F T T  -4.0112764818655514E-02        3838101567.0        1430396723.0        1556923290.0        2889325561.0         607612135.0        3761282217.0        3692455944.0        1366884236.0        2968912127.0         335948734.0        4161675175.0         475798818.0        3692455944.0        1366884236.0        2968912127.0         335948734.0        4161675175.0         475798818.0
Wiener process for Thermostat # 3        1 F T T  -2.7485675335982579E-01         482699311.0        2506409672.0        1202736307.0        1073196783.0        1141297417.0        2856513754.0        1015873554.0        1310354410.0        2249465273.0         994084013.0        2912484720.0        3876682925.0        1015873554.0        1310354410.0        2249465273.0         994084013.0        2912484720.0        3876682925.0
Wiener process for Thermostat # 4        1 F T T  -9.8957058820594379E-01        3129827523.0        3549124345.0        1353678049.0        1344233659.0        2578763699.0        1106953444.0        2338701263.0        1119171942.0        2570676563.0         317077452.0        3194180850.0         618832124.0        2338701263.0        1119171942.0        2570676563.0         317077452.0        3194180850.0         618832124.0
Wiener process for Thermostat # 5        1 F T T   8.1743834600370391E-01         587879607.0         702838090.0         820286405.0        1159088393.0        1840431053.0        2379049004.0        1597262096.0        3906379055.0        3312112953.0        1016013135.0        4099474108.0         275305423.0        1597262096.0        3906379055.0        3312112953.0        1016013135.0        4099474108.0         275305423.0
Wiener process for Thermostat # 6        1 F T T  -4.6635220676026440E-01        1255338812.0        2941627828.0        2767710176.0        1701464963.0        2824905014.0        2257709657.0          97147054.0        3131372450.0         829345164.0        3691032523.0        3006063034.0        4259826321.0          97147054.0        3131372450.0         829345164.0        3691032523.0        3006063034.0        4259826321.0
Wiener process for Thermostat # 7        1 F T T  -2.7221417990508723E-01        2928923925.0        1475590831.0        3028549759.0        1729569924.0         123262326.0        1965188850.0         796079799.0        2105258207.0         955365076.0        2923159030.0        4116632677.0        3067683584.0         796079799.0        2105258207.0         955365076.0        2923159030.0        4116632677.0        3067683584.0
Wiener process for Thermostat # 8        1 F T T  -1.3371509559371584E+00        3293786404.0        2324351260.0        4224364702.0        1341956089.0         912321799.0        2697559406.0        3281794178.0        2616230133.0        1457051261.0        2762791137.0        2480527362.0        2282316169.0        3281794178.0        2616230133.0        1457051261.0        2762791137.0        2480527362.0        2282316169.0
Wiener process for Thermostat # 9        1 F T T  -8.7225140957356684E-01         657961678.0        1513147170.0        2219186603.0        4111646695.0         616753226.0        2747528653.0        3777646647.0        1837464056.0        4204654757.0         664239048.0        4190510072.0        2959195122.0        3777646647.0        1837464056.0        4204654757.0         664239048.0        4190510072.0        2959195122.0
Wiener process for Thermostat # 10       1 F T T  -6.2889449580622436E-01          96284293.0        2446379684.0        3801610533.0        2961863039.0        1877110468.0         129512113.0        4215590817.0        3862461878.0        1087200967.0        1544910132.0         936383720.0        1611370123.0        4215590817.0        3862461878.0        1087200967.0        1544910132.0         936383720.0        1611370123.0
Wiener process for Thermostat # 11       1 F T T   5.7191327297384098E-01         909895394.0        1862319182.0        2400367466.0        1201802882.0        2818881371.0          83822050.0        1683636369.0         362165168.0         814316280.0         869382050.0         980203903.0        2062101717.0        1683636369.0         362165168.0         814316280.0         869382050.0         980203903.0        2062101717.0
Wiener process for Thermostat # 12       1 F T T  -2.0098512161557830E-01        4281566709.0        2729512869.0         275332126.0         437149450.0        1041778670.0        1778805263.0         272317999.0         166758548.0         310112982.0         201045826.0        1680231254.0         118290799.0         272317999.0         166758548.0         310112982.0         201045826.0        1680231254.0         118290799.0
Wiener process for Thermostat # 13       1 F T T   9.4560796151122029E-01        3557498645.0        2583014714.0        2425630516.0         920535172.0        3770643442.0         978988578.0        2245755202.0        1652682525.0        2865544364.0         721509566.0         209733568.0         592362218.0        2245755202.0        1652682525.0        2865544364.0         721509566.0         209733568.0         592362218.0