 # Version information for this restart file 
 # current date 2022-11-29 20:46:57.948
 # current working dir /scratch/work/courses/CHEM-GA-2671-2022fa/mf4024/comp-lab-class/Week12/Runs/Protons
 # Program compiled at                              Sat Dec 12 18:27:15 EST 2020
 # Program compiled on                                         cs001.nyu.cluster
 # Program compiled for                                                nyu-intel
 # Source code revision number                                       git:8c64c6e
 &GLOBAL
   PRINT_LEVEL  LOW
   PROJECT_NAME proton_aimd_1ns_every0.5fs
   RUN_TYPE  MD
   WALLTIME 21600
 &END GLOBAL
 &MOTION
   &GEO_OPT
     OPTIMIZER  BFGS
     MAX_ITER  100
     MAX_DR     3.0000000000000001E-03
     &BFGS
     &END BFGS
   &END GEO_OPT
   &MD
     ENSEMBLE  NVT
     STEPS  2000
     TIMESTEP     4.9999999999999994E-01
     STEP_START_VAL  2000
     TIME_START_VAL     9.9999999999998226E+02
     ECONS_START_VAL    -1.1027290848025568E+03
     TEMPERATURE     3.0000000000000000E+02
     &THERMOSTAT
       TYPE  GLE
       REGION  MASSIVE
       &GLE
         NDIM  5
         A_SCALE     1.0000000000000000E+00
         A_LIST     1.8595758612559999E+02    2.7263853498399998E-01    1.1526100454610001E+01   -3.6414578262600003E+01 \
             2.3173375816020001E+02
         A_LIST    -2.7809524712060002E-01    8.5951591808710006E-05    7.2189048017650004E-01   -1.9844539343859999E-01 \
             4.2409257583420001E-01
         A_LIST    -1.4825808131210000E+01   -7.2189048017650004E-01    1.3590902121280000E+00    5.1498896280349999E+00 \
            -9.9949268450990001E+00
         A_LIST    -1.0372189126880000E+01    1.9844539343859999E-01   -5.1498896280349999E+00    2.6661910891169999E+01 \
             1.1507715495310000E+01
         A_LIST     2.1801346360420001E+02   -4.2409257583420001E-01    9.9949268450990001E+00   -1.1507715495310000E+01 \
             3.0958394565589998E+02
         &THERMOSTAT_ENERGY
               2.7385517687816838E-03
               4.3841166921480450E-03
               2.1507313334966790E-03
               6.2650981995966484E-03
              -1.4048348773326327E-02
              -3.9316366209831690E-03
              -5.8111076423851124E-03
              -4.9073909615160996E-03
               6.6288370032608164E-03
              -1.7231278726856554E-04
               9.5368966409015918E-03
               4.5475604394905099E-03
              -5.2873816383776535E-03
              -7.0785233485224771E-03
              -8.8030985659944992E-04
              -5.9245436682242069E-03
               1.4313642111427776E-02
              -1.0723983363853646E-02
               4.8290771389600234E-03
              -2.1213754862730986E-03
              -6.9939855732062024E-03
               1.1760786450499950E-02
              -1.8792670026059093E-02
              -2.6128902823531249E-03
               5.3231434229070304E-03
              -9.1841273218872949E-03
               2.2057165932751646E-03
               2.2287619533361215E-03
              -6.7316089014297106E-04
               4.1090229140405962E-03
              -2.7629033438090400E-03
              -2.4770513635031994E-03
               9.7548274167374577E-03
               4.3165535824557424E-03
               5.3012222030421165E-03
               4.0875147389415178E-03
               1.3847985829095529E-03
              -2.8399303524526257E-03
               7.2623564314792737E-04
               6.4554282816640777E-04
               1.1733665183984597E-02
              -8.1572827192666793E-03
               8.3224660539342830E-03
               6.9613719810019238E-03
              -4.0560540257111154E-03
              -4.9744399065275793E-04
              -9.0765578195610968E-03
               3.3592809510564498E-03
              -4.8686338038010911E-04
              -3.6909802498876827E-04
              -1.5709378316774002E-03
               4.1461313329702260E-03
              -1.3487313475255107E-02
              -1.0617468612281538E-03
              -8.5719467667829622E-03
               2.5726511362812866E-03
               2.2032850507381976E-03
              -8.0624640517500054E-03
               1.4515694626031040E-02
               6.7569030276446139E-03
              -9.2341886097168611E-03
              -6.3824847514091301E-03
               2.2682218399258280E-02
               3.5404797675333969E-04
               7.2640814989882313E-03
              -1.2533455594329317E-03
               7.9588154494323743E-03
               1.6050912865003056E-02
              -6.8294725784410013E-03
              -7.4763010433035208E-03
              -9.4579272085734342E-03
              -2.8309279193274050E-04
              -6.9390033528059225E-04
               6.4121423684889824E-03
              -6.7268830740378587E-03
              -8.8351950608732705E-03
               1.4122367683089544E-02
              -1.9706218778918119E-03
               2.0668949048717713E-02
              -1.5393539822926310E-02
              -1.5617610406898005E-03
              -3.2745199189722000E-03
               5.7019706822061811E-03
               2.5993689708330944E-03
               5.3084731621528712E-04
               9.3175180288363815E-03
              -7.3289113540872671E-04
              -1.3135171133370989E-02
              -6.4722118375165703E-05
              -5.3660663902048260E-04
              -1.9071470447302604E-03
              -7.2785128840200499E-03
               4.4318849494595792E-03
              -8.9635903719684547E-03
              -8.9091489440287133E-03
               1.1500386578841365E-02
               6.5233185007565544E-03
               2.4102802710394100E-03
               9.3441623097844859E-04
              -4.0697351944080681E-04
               1.7713914061647353E-03
              -2.5999179965681945E-03
              -3.9958351065635120E-03
               7.1569524412803415E-03
              -4.5615650265592930E-03
               1.6669627559317755E-02
               1.9523776068068568E-02
               7.7467522353877050E-03
               2.7791583123075833E-03
              -3.6796040954056807E-03
               3.6814752923994051E-03
               9.4674066421595957E-03
              -1.0274208282186894E-02
               3.9311207802793131E-03
               4.1318445427638746E-03
               2.4253186629424614E-03
              -1.0637951127684528E-02
              -2.5191749123978631E-04
               9.9789354752438490E-04
               5.3938573540222023E-03
               3.2649063400718805E-03
               4.7824712164845047E-03
               1.1615304835753393E-03
               1.1272858367530064E-02
              -1.4028022483290865E-02
              -7.0443072246921682E-03
               1.4693188752837368E-03
              -2.0733740261122194E-03
               2.6933276271896844E-04
               7.8114178212925116E-03
              -7.6957792591543905E-03
               6.2376544597407980E-03
              -1.4344932813761247E-03
               8.0519373017516279E-04
               4.5766514247588723E-03
               3.3970743283115333E-03
              -3.9921601228821053E-03
              -7.8420727535731087E-03
               1.0456203910293302E-02
              -8.7814566818171669E-03
              -4.1698168344393230E-03
               8.4539029197772588E-03
               4.8591973595112341E-03
               4.6237498895661013E-03
              -6.0847051051072555E-03
              -1.9804162686597460E-03
               5.0756796585304143E-04
               4.3723143234857759E-03
              -8.7628484872758379E-03
               3.9726528421637625E-03
              -1.2703102653838080E-02
               1.7033912234865368E-02
              -1.0453359350870188E-02
               2.5648865878210134E-03
               3.0644584440448546E-03
               1.4649448368052320E-04
               1.9089872056575830E-03
              -1.5362617432588305E-03
              -6.9533432137281158E-03
              -5.2069527038948755E-04
               4.5142738967257415E-03
              -1.6025583798125497E-03
              -6.4643238408959060E-04
               3.6115384556616443E-03
               4.5706029366431727E-03
               2.5192889568308927E-02
               1.5466664210718655E-03
              -1.6396843771636256E-02
               8.4639596610585352E-04
              -2.7709723259795298E-03
               1.6283626201727037E-03
              -5.7137088370298921E-03
               6.0523660609557318E-03
              -1.2855098320915330E-02
               9.2350582173866755E-03
               9.4484742120024365E-03
              -7.1885111049124805E-03
              -5.9122301352685352E-03
               8.9033228157843376E-03
               1.6692287991688742E-02
               1.8304010797847564E-03
              -4.9395291660288068E-03
              -1.0168065849752464E-04
              -1.4615351977680227E-02
               1.0296924898011348E-02
              -1.9372106453879770E-03
              -1.6606214835722759E-02
               1.0879773079711864E-02
              -5.4657755061046209E-03
               1.8506412964224065E-03
               3.3438145679331875E-03
              -4.0757049181539971E-04
              -4.2982887658030990E-04
               1.7899091437901429E-02
              -5.4965874388982422E-03
              -3.6852600035282637E-03
              -1.4865016970379515E-03
               5.0040354584137848E-03
               1.2473273237976973E-03
               5.0863098250302713E-03
              -3.2770085506853351E-03
              -1.7591663010200315E-04
               5.1360048935713241E-03
               1.5879498091405815E-03
              -4.2172696112156988E-03
               6.0892235623705108E-03
              -2.5210576607215744E-03
              -1.5012505471314363E-03
               5.1735576041402028E-03
              -1.6161084362579174E-03
               5.5531122456492507E-03
              -1.0324466047891667E-02
               1.3405617059501803E-02
               1.9509508062700070E-03
               4.4406527371127988E-04
               1.2423922040525211E-03
              -3.8097293832927990E-03
               9.7574579304595330E-03
               4.7956030942219825E-03
              -3.7984886508554872E-03
               4.6990619774438984E-03
              -7.4844484474200145E-03
              -9.8374798561400457E-03
               2.6722287776679444E-03
               9.5953769518746287E-03
               3.2187850310059366E-03
               2.0959139315081493E-03
               3.1568692609978801E-03
               9.5751820233281708E-03
              -1.4487336790303776E-02
              -1.4243327642040659E-03
               5.7025262125089482E-03
               8.6113261656991201E-03
              -5.7410437980399669E-03
               1.2802627427128924E-03
              -2.5746740853457308E-04
              -3.0849422263504586E-03
               6.8268939702260676E-03
               4.5963081906064997E-03
              -3.0975056097598769E-04
               5.6840690590795996E-03
              -2.1651973777053555E-03
              -5.4724469301154237E-03
               2.0366747142966674E-03
               6.6670389522287127E-03
              -7.8162546514690286E-04
              -7.2163396804559472E-03
               8.2715500510329651E-03
              -6.9164699452686491E-04
              -9.2803006618070605E-03
               5.2356949227895279E-03
              -6.2594441269568030E-03
              -9.7055760034089229E-03
              -1.5547925859468962E-03
               5.9510911911752990E-03
              -2.6582228977034121E-03
               2.0613259853759499E-02
              -8.5649736362837688E-03
               6.6589437437298768E-03
              -2.4260899746115169E-02
               1.3456128186600564E-02
               5.3583946936823111E-04
               6.1983628865816326E-04
              -3.0069820495902161E-03
               5.1287234646930479E-03
              -4.5889287728029067E-03
               8.0638811251718193E-03
              -2.9446434875437175E-03
               1.4227110927560009E-02
               1.0604058686986618E-02
               1.5434680580970484E-02
               1.6827574549628178E-02
               1.8366140203695088E-02
               6.4869815727723193E-03
               3.3450505343362545E-03
              -4.5506730575852802E-03
              -9.1860881675585714E-03
               3.7279231926110523E-03
              -3.3462521567424386E-03
               1.5197858348778959E-02
              -1.0514471067376595E-02
              -1.2331788013129331E-02
               4.2119607654998153E-03
              -7.9429712816591681E-04
               1.5466716486123311E-03
              -4.3623062645101324E-03
               4.8621040789622021E-03
              -4.1500420068009448E-03
              -9.5535267611560580E-03
              -2.8856042203834194E-03
               9.5088139609033062E-03
               6.3383509423112000E-03
              -5.1115021569552938E-03
              -1.4713988632458416E-05
              -6.5468438364215406E-04
               9.3684234970287557E-03
              -1.3235107709012123E-02
               1.2016465394595523E-02
               1.1860410261501232E-02
              -1.1965124528314634E-02
               3.7938782859868233E-03
              -3.0775515049609025E-03
               6.5090647055411101E-03
               1.1102516413064888E-02
              -2.8118059713170707E-03
              -3.0286295595705524E-03
               2.1620881361091748E-04
               6.2161752914693842E-03
              -6.8228399679530153E-03
               2.9290002857496329E-03
              -2.3432651968705799E-03
              -2.8249763563407680E-03
              -1.7924120374372080E-03
              -4.6504072698707330E-03
               2.3091088014865866E-03
              -1.3645346239544743E-04
              -1.4817247820922304E-02
               7.7257739959464338E-03
              -1.5813941900378856E-02
              -7.2590680906376966E-03
               5.8906975791419448E-03
               5.5326417041258623E-03
               3.9654212708054876E-03
               4.8309680209574087E-04
              -7.0227806198070600E-03
               1.6489859742216721E-02
              -1.2044255692242112E-03
               7.9218909451284382E-03
              -3.2098569618908596E-03
               4.3112317483516528E-04
              -7.8691654779809231E-03
               7.2273533577995328E-04
               1.5787899484309047E-03
              -2.5452938498757589E-03
               4.0716866907633802E-03
               1.9270003356536684E-03
               3.3634521301635278E-03
              -1.5931476390079380E-03
               5.4560884147888426E-03
               1.6839220431242405E-03
              -9.8744444153487688E-03
               6.2693377072334210E-03
               3.6690315536076260E-03
              -4.3458053424440764E-05
              -7.4841677404206761E-03
               4.2374873820881630E-03
               4.7190522379002833E-03
              -1.2389090286244306E-02
               8.8206453543657002E-03
               4.3263807881770032E-03
              -6.8875736766693468E-04
               1.2578272141810321E-03
              -1.1809779485121377E-02
               4.3288556195256386E-03
               4.3953862723508947E-03
               8.4792725670458202E-04
               8.8447753979393486E-04
              -1.2686968585583224E-02
              -4.3108143389400414E-03
               5.5807586437986367E-03
               5.4219806171502535E-03
              -3.9315659881969250E-03
               1.4588271862506814E-02
              -2.7922945619106776E-04
              -6.5833168653462422E-03
              -2.6562362009421828E-03
               7.9647933367235305E-03
              -1.7243022767537627E-03
              -1.3142851144782116E-02
               6.1815469806394173E-03
               1.3903856257005275E-03
               1.8356817664825912E-03
               1.1240905728086290E-03
              -1.3348459530725732E-03
               5.4480671921755446E-03
               1.1193013489312681E-02
              -5.6486453124455615E-03
              -1.6992007133786527E-02
               1.0874940494891652E-03
               9.7275537454279259E-03
               3.3152596352281848E-03
               6.6724958951987438E-03
              -4.0966566998649869E-03
              -3.2557453297037365E-03
              -1.1649198946482033E-02
              -3.4511988857829890E-03
               5.8048890853240158E-03
              -6.3267166369725056E-03
               3.7631669476382353E-03
               4.9460114891462141E-03
              -5.6783626756919002E-03
               5.1446247048175684E-03
               1.6693128365619502E-03
              -4.0256140808558804E-03
               1.0269797539320448E-02
              -2.1191305790972071E-03
              -1.5443697800014266E-03
              -2.1647174705266507E-03
               6.5579806412666554E-04
              -1.1815397073541244E-03
               6.2425032333352556E-03
              -7.0445194211831482E-04
              -9.1606254888637485E-03
              -2.0344536571448094E-03
               5.4368841382362943E-03
              -1.5870038984491341E-04
              -4.2968243763029197E-03
              -2.6935242358680864E-03
               2.2683776290721028E-03
              -1.0991803877891445E-03
               3.3444250742585422E-04
              -4.9025755259972780E-03
              -6.5978750196494650E-04
              -4.6889607604994610E-03
               7.8494226467983978E-03
               1.3965496867157320E-03
              -1.0805551914242931E-03
               2.1376205017156532E-03
               1.8645519855112764E-03
              -3.7253047683588310E-03
               4.1962862444198754E-03
               9.1512175763013449E-03
              -7.3797397666757599E-03
              -2.1034995312087202E-03
               1.2483294936447994E-02
              -9.2645640826686127E-03
               6.3394425376974957E-04
               6.1877473250228376E-04
               6.4167767103410142E-03
              -2.6560013510924111E-03
              -2.0182520179227261E-03
              -4.9075483039647911E-03
              -1.3219458613966032E-02
               1.0032938611639156E-02
               5.9237577690991368E-03
               7.1835734430625514E-04
              -6.8915678813501243E-03
              -3.9130897936768905E-03
              -8.8519892753336667E-03
               4.4403817394823904E-03
               6.1736746728610079E-03
               2.7658432150506371E-03
              -6.4557573431710301E-04
              -1.4350737206808955E-04
               9.4032411696973764E-05
               7.8477073817377029E-03
               5.8781756732909458E-03
               1.1120516030513491E-02
               3.3820163244659843E-03
              -5.6513980186489636E-03
              -6.1671387409882959E-03
              -8.4255824071031576E-03
               3.2266418699803756E-03
               4.0442201402379292E-03
               1.3037954910820773E-03
              -3.4793628314055871E-05
              -3.1796887430819371E-03
              -2.3319553009930730E-02
               5.8158911006701225E-03
              -1.0078320209328900E-02
               2.1196636453867958E-02
               1.2441201428493101E-02
              -2.2501914772590204E-03
               4.8796379249038792E-03
               2.7381799974562942E-04
              -3.0822021944362020E-03
              -9.4095540884633518E-03
               4.9023327976592079E-04
               1.0344610943996775E-02
              -6.2266815482427598E-03
              -7.1530339139591797E-03
              -2.6906501878159609E-03
               5.2384932882739701E-03
              -2.8032586191152633E-03
              -7.6930734180229695E-03
               1.8345078780437653E-02
               2.4175599266715521E-03
               2.4688987706779379E-03
               7.2842185280648552E-03
               3.2183427158194672E-04
               5.1918054327534493E-03
              -6.2054698335995313E-03
               1.2641967691648510E-02
               4.9971897781023586E-03
              -1.4066298519707495E-03
              -1.0182552473331733E-03
              -4.2066495127228969E-03
              -2.6714340008277405E-03
               1.3365615541567153E-02
               2.0851436483667316E-03
               7.9426955722105789E-03
               9.0932830702451419E-03
               1.1014817898216426E-02
              -9.5004828565626257E-03
               1.3596476127565036E-03
               3.1690121469134728E-03
               4.1294715800444413E-03
              -7.3425698542886192E-03
               7.7437076841569493E-04
               6.6092576557643789E-03
              -3.8644346476620168E-03
               1.7073272877591063E-02
              -2.2646393327275832E-02
               1.3794863492758637E-02
               4.3950851384849041E-03
              -1.1545061415272928E-02
              -5.6226055651110406E-03
              -4.0706005800273662E-04
               7.8387705772535073E-03
               3.8298737924980170E-03
              -1.6081685073395602E-03
               9.9262861478132663E-03
              -1.5670675268593904E-03
              -4.3807567344826843E-03
               7.0006689028626464E-03
              -2.1135979316757147E-02
              -6.4894879651295860E-03
              -1.7817486998159666E-03
               7.6678286237224173E-03
               1.7028457555357847E-02
              -1.9634052324453827E-02
              -2.5170787898110541E-03
               1.4325209196458721E-03
               2.0589048703891625E-03
               9.5454829359786449E-04
               5.5271498964047016E-03
              -6.9357477267448465E-03
              -2.9157083066883630E-03
               8.7098097598995103E-03
              -1.2322654876624143E-03
              -4.8567208379899189E-03
               3.3320665820364172E-03
              -8.6525404663443141E-03
              -6.1762428837598676E-03
              -1.7281135225690660E-03
              -4.6568586807639372E-03
              -2.1173371953947268E-03
              -1.9820791257932598E-03
               6.6393956260299052E-03
               4.0840687196104274E-03
               6.1182027600907409E-03
               2.6974483619982845E-03
              -1.0696102596568896E-02
               2.9759799049354219E-03
               4.2110577899800425E-04
              -6.3670421785597762E-03
              -2.1150965389761973E-03
               9.1373884248618416E-03
               1.0452507110808137E-02
               3.7715401232983775E-03
               1.4881858567365255E-02
              -1.0385353121339112E-02
              -4.4732996957597727E-03
              -4.5306003310201619E-03
               4.4650901102858539E-03
              -1.7818130704655457E-03
              -7.0164710088683980E-03
               3.5865166815824325E-03
               1.4297420064562593E-02
               9.8884169153079932E-03
               9.3350798468572638E-04
               5.3646384698027988E-03
              -1.5314823701521650E-03
              -5.0525905568744422E-04
              -6.4761029123110610E-03
               1.1982871649492610E-04
               1.5093945040076699E-03
              -4.1598297239025363E-03
              -7.3520606820832142E-03
               4.0795806486287689E-03
              -2.9100699548668791E-03
               5.6405794798951119E-04
              -7.1721927637842225E-03
              -1.3230268842260428E-02
               3.3944484013879233E-03
               1.4124643314722806E-02
               1.0852691147596068E-02
              -9.4750207790033694E-03
               1.8026932939515339E-03
         &END THERMOSTAT_ENERGY
         &RNG_INIT
Wiener process for Thermostat # 1        1 F T T  -4.3866331554119464E-01        3463026290.0         996283881.0        3077134961.0        1575188103.0         352198642.0        1255594993.0             12345.0             12345.0             12345.0             12345.0             12345.0             12345.0             12345.0             12345.0             12345.0             12345.0             12345.0             12345.0
Wiener process for Thermostat # 2        1 F T T   6.1664168869435698E-01         581397078.0        3867423482.0         327967633.0        1486938113.0          26429212.0        4093174459.0        3692455944.0        1366884236.0        2968912127.0         335948734.0        4161675175.0         475798818.0        3692455944.0        1366884236.0        2968912127.0         335948734.0        4161675175.0         475798818.0
Wiener process for Thermostat # 3        1 F T T   2.0518696979926636E+00        1062843694.0        3278483557.0        2630284801.0         342499437.0         508306288.0         570022504.0        1015873554.0        1310354410.0        2249465273.0         994084013.0        2912484720.0        3876682925.0        1015873554.0        1310354410.0        2249465273.0         994084013.0        2912484720.0        3876682925.0
Wiener process for Thermostat # 4        1 F T T   8.6483655468840070E-01         858988242.0         878260951.0        1341305949.0        1687735708.0        1261279903.0        1615458589.0        2338701263.0        1119171942.0        2570676563.0         317077452.0        3194180850.0         618832124.0        2338701263.0        1119171942.0        2570676563.0         317077452.0        3194180850.0         618832124.0
Wiener process for Thermostat # 5        1 F T T  -7.2623034709222295E-02        3503246388.0        3640749438.0          80160185.0        4050541932.0        1809135917.0         826251710.0        1597262096.0        3906379055.0        3312112953.0        1016013135.0        4099474108.0         275305423.0        1597262096.0        3906379055.0        3312112953.0        1016013135.0        4099474108.0         275305423.0
Wiener process for Thermostat # 6        1 F T T   2.6094790259997280E+00        1648662560.0         298744963.0         276080774.0        3452610735.0        2129471280.0        4132861437.0          97147054.0        3131372450.0         829345164.0        3691032523.0        3006063034.0        4259826321.0          97147054.0        3131372450.0         829345164.0        3691032523.0        3006063034.0        4259826321.0
Wiener process for Thermostat # 7        1 F T T   1.3118545096244869E+00        4025695046.0        1027992126.0        3217973651.0        2155997853.0        1780084567.0        1907814450.0         796079799.0        2105258207.0         955365076.0        2923159030.0        4116632677.0        3067683584.0         796079799.0        2105258207.0         955365076.0        2923159030.0        4116632677.0        3067683584.0
Wiener process for Thermostat # 8        1 F T T   7.1524753302764935E-02        2631328646.0          66904958.0        3191287979.0        3452779318.0        2048731614.0        3759050068.0        3281794178.0        2616230133.0        1457051261.0        2762791137.0        2480527362.0        2282316169.0        3281794178.0        2616230133.0        1457051261.0        2762791137.0        2480527362.0        2282316169.0
Wiener process for Thermostat # 9        1 F T T  -1.0980465140389938E-01        1977246253.0        1903248984.0        3508262652.0        2466127224.0         300284070.0         767034957.0        3777646647.0        1837464056.0        4204654757.0         664239048.0        4190510072.0        2959195122.0        3777646647.0        1837464056.0        4204654757.0         664239048.0        4190510072.0        2959195122.0
Wiener process for Thermostat # 10       1 F T T   1.9081094228418396E+00         405211316.0        3215252316.0        3029076279.0        3899943421.0         886526099.0         586515832.0        4215590817.0        3862461878.0        1087200967.0        1544910132.0         936383720.0        1611370123.0        4215590817.0        3862461878.0        1087200967.0        1544910132.0         936383720.0        1611370123.0
Wiener process for Thermostat # 11       1 F T T  -5.3344054384789541E-01        3450000619.0        1059116059.0        3916567347.0         635813254.0        3901690603.0        3696418470.0        1683636369.0         362165168.0         814316280.0         869382050.0         980203903.0        2062101717.0        1683636369.0         362165168.0         814316280.0         869382050.0         980203903.0        2062101717.0
Wiener process for Thermostat # 12       1 F T T   8.9448207812820613E-01        1696219248.0        1783691089.0        1685873716.0        1285524479.0        2726140602.0        4269630803.0         272317999.0         166758548.0         310112982.0         201045826.0        1680231254.0         118290799.0         272317999.0         166758548.0         310112982.0         201045826.0        1680231254.0         118290799.0
Wiener process for Thermostat # 13       1 F T T  -1.0297203341400047E+00        4019568919.0        3484227797.0         947541978.0        4224885921.0        2127446270.0         502669027.0        2245755202.0        1652682525.0        2865544364.0         721509566.0         209733568.0         592362218.0        2245755202.0        1652682525.0        2865544364.0         721509566.0         209733568.0         592362218.0