 # Version information for this restart file 
 # current date 2022-11-29 19:28:28.682
 # current working dir /scratch/work/courses/CHEM-GA-2671-2022fa/mf4024/comp-lab-class/Week12/Runs/Protons
 # Program compiled at                              Sat Dec 12 18:27:15 EST 2020
 # Program compiled on                                         cs001.nyu.cluster
 # Program compiled for                                                nyu-intel
 # Source code revision number                                       git:8c64c6e
 &GLOBAL
   PRINT_LEVEL  LOW
   PROJECT_NAME proton_aimd_1ns_every0.5fs
   RUN_TYPE  MD
   WALLTIME 21600
 &END GLOBAL
 &MOTION
   &GEO_OPT
     OPTIMIZER  BFGS
     MAX_ITER  100
     MAX_DR     3.0000000000000001E-03
     &BFGS
     &END BFGS
   &END GEO_OPT
   &MD
     ENSEMBLE  NVT
     STEPS  2000
     TIMESTEP     4.9999999999999994E-01
     STEP_START_VAL  1500
     TIME_START_VAL     7.5000000000000762E+02
     ECONS_START_VAL    -1.1027290848025568E+03
     TEMPERATURE     3.0000000000000000E+02
     &THERMOSTAT
       TYPE  GLE
       REGION  MASSIVE
       &GLE
         NDIM  5
         A_SCALE     1.0000000000000000E+00
         A_LIST     1.8595758612559999E+02    2.7263853498399998E-01    1.1526100454610001E+01   -3.6414578262600003E+01 \
             2.3173375816020001E+02
         A_LIST    -2.7809524712060002E-01    8.5951591808710006E-05    7.2189048017650004E-01   -1.9844539343859999E-01 \
             4.2409257583420001E-01
         A_LIST    -1.4825808131210000E+01   -7.2189048017650004E-01    1.3590902121280000E+00    5.1498896280349999E+00 \
            -9.9949268450990001E+00
         A_LIST    -1.0372189126880000E+01    1.9844539343859999E-01   -5.1498896280349999E+00    2.6661910891169999E+01 \
             1.1507715495310000E+01
         A_LIST     2.1801346360420001E+02   -4.2409257583420001E-01    9.9949268450990001E+00   -1.1507715495310000E+01 \
             3.0958394565589998E+02
         &THERMOSTAT_ENERGY
               3.2237937856293120E-03
               1.6975348342131585E-03
               1.7764258230313920E-03
               1.0146966741369362E-02
              -2.0494724561461401E-02
              -2.5348239901677718E-03
              -4.3622634941315307E-03
              -4.5202744480445116E-03
               6.3730127081076358E-03
               2.0544266264525515E-03
               8.8746130116411515E-03
              -1.0026167392810925E-03
               3.1612112049484047E-03
              -1.3486981654266334E-02
               3.9022992390478394E-03
              -3.6879424412292871E-03
               7.9467747776556467E-03
              -1.1393010369485515E-02
               1.4666310865825124E-03
              -2.5227996975124489E-03
              -1.1005382997361271E-03
               7.9895942860310678E-03
              -1.1767956703105965E-02
               5.4576742541942067E-04
               6.7958403996702492E-04
              -9.8663910429989919E-03
               4.0381118658133087E-03
               2.8578871333919298E-03
               3.7738765771600873E-03
               1.7096562828736244E-03
              -7.8524018952827318E-03
              -2.6034076012289523E-03
               8.6589519468176016E-03
               7.3721741167981688E-03
              -6.5293876226748459E-03
               1.0977362080089073E-02
              -8.9802177749771328E-04
              -2.7009074856594061E-03
               1.6384003587438213E-03
               3.6179395630635573E-06
               6.8983103612620901E-03
              -2.5206493314866218E-03
               7.5779791382522797E-03
               5.8077061610287434E-03
              -5.1578172696700991E-03
              -3.1287938520362809E-03
              -6.2314066347317568E-03
               5.7453639551361792E-03
              -2.7322741470958084E-03
               4.9546347071153093E-03
              -2.9377931914819624E-03
              -1.7335604341153466E-03
              -7.9466716880799461E-03
              -1.1824840935246114E-03
              -5.8781879846909772E-03
               3.3706246933592351E-03
               6.3488173530093115E-04
              -5.9793252228588719E-04
               7.5031683053555587E-03
               4.8253441744780436E-03
              -1.1776998512963797E-02
              -2.2740196355031089E-03
               1.7253429979599333E-02
              -8.7944271318873423E-04
               7.5586185123157831E-03
              -1.4162033608284852E-04
               3.8425922910151232E-03
               7.6048931716610748E-03
               2.3331023609350593E-03
              -7.4511554394554320E-04
              -1.1009417243991220E-02
               4.4518101345165850E-03
              -1.6528175216881976E-03
               6.8701037348398893E-03
              -7.4087121797619870E-03
              -1.0065203857159595E-02
               1.9301594103949396E-02
               2.1168756565865011E-03
               2.1983117852484305E-02
              -1.1526293638977701E-02
              -7.3362751540361612E-03
              -2.8570198455855306E-03
               3.5797174577884370E-03
               3.0866396243062834E-04
              -4.7179044274197452E-04
               9.8640999184974286E-03
              -3.1166546418983322E-03
              -4.9643378334486114E-03
              -2.5843755449353223E-05
               5.2470723217849388E-05
               1.5407530885339471E-03
              -5.0560246999309753E-03
               5.7033000179245808E-03
              -9.2687623049667964E-03
              -1.3110470174993087E-02
               1.5896406901103003E-02
               1.2292109028852068E-03
               4.0942474093762019E-03
               1.2467287252757985E-03
              -2.0272611691145745E-05
               1.8255261171368713E-04
              -6.9784469966746620E-04
              -5.7497989671737972E-03
               1.0847545379452227E-02
              -4.5727490410242414E-03
               1.7502614203815117E-02
               1.8129196823910371E-02
               1.7947058624523421E-03
               3.8388403601682308E-03
              -1.0372162538567903E-03
              -4.6526896183836754E-04
              -3.0983367251963636E-03
               1.1902597547408242E-03
               6.5461927475513092E-03
               2.3629634337934266E-03
               3.6225443792024313E-03
              -6.8202729130598357E-03
               1.7064683146121641E-03
               1.8766653452838699E-03
               2.5663732501323704E-03
               1.9603183670565227E-03
               4.9770996548045079E-03
               1.0357515844303111E-03
               7.9074425970319193E-03
              -1.0764914682108068E-02
              -8.7108529007192594E-03
               4.6708054918042268E-03
              -9.9379830920924843E-04
               1.8891332626565474E-03
              -3.6842678830036613E-03
              -1.0238237208234061E-02
               9.6381885826483157E-03
               6.0489572724813285E-04
               2.7183086497512168E-03
               5.9284005667828744E-03
               2.5156447805485187E-03
              -3.1787656572186025E-03
              -6.3640372637125877E-03
               7.2058599489869058E-03
              -6.8595347159689166E-03
              -2.9573464604153131E-03
               7.5634492398463111E-03
               6.2134099505518131E-03
               2.8350795222029045E-03
              -7.9890549405634559E-03
               8.3122211303702175E-04
               5.4094039865114924E-03
              -3.6521858290126407E-03
              -1.1968969945136859E-02
               6.0889136593090930E-03
              -1.0531681592564462E-02
               1.2084338890175267E-02
              -1.7101614176097204E-03
              -6.5759285365598360E-04
               2.1991055423048024E-03
               2.7853454665766960E-03
               2.5636259658615894E-03
              -7.9978121139524828E-03
              -2.5396050829967075E-03
              -1.2272147278663951E-03
               7.4943098440289442E-03
              -1.1243850672351023E-03
              -2.3418872450690375E-03
               2.8250316699769435E-04
               4.9356360555553262E-03
               1.8823489804139865E-02
               9.2985859885968177E-04
              -1.0420700572568577E-02
              -1.2164068073892067E-03
               3.8281771349249743E-03
               1.2722521711777159E-04
              -7.3496289481625983E-03
               4.7165108207493081E-03
              -1.0111846001735932E-02
               5.1395910941030541E-03
               8.4338183165736935E-03
              -8.6744175232351759E-03
              -4.0762951107940447E-03
               8.2315187141262704E-03
               1.4040248647965667E-02
               1.2435477479160037E-03
              -3.7059696149028191E-03
               1.9104434649832237E-03
              -1.4684776162365111E-02
               1.0960227256086287E-02
              -2.5394054173001408E-03
              -1.3641808643401197E-02
               5.8146718510208696E-03
              -1.8036459490447952E-03
               3.2486050878976838E-03
               1.6545655298963386E-03
              -1.5484743470127920E-03
               3.3860964517704881E-03
               1.8574401909660587E-02
              -4.6491664867598387E-03
              -2.4376728094498948E-03
              -4.8537276712128903E-03
               4.8673365208793430E-03
               1.9202552668835414E-03
               5.0435064483847778E-03
               9.2885625827313794E-04
              -2.3758571030078491E-03
               4.6918493100409188E-03
               3.5908335641285268E-03
              -5.0359208262559813E-03
               2.6432864551844985E-03
              -4.1514071345696880E-03
               8.8435007604782689E-04
               6.4693011521601770E-03
              -2.2382976188618053E-03
               4.0437958705129406E-03
              -5.0065622571339790E-03
               7.2171060155556879E-03
              -4.9870840309936409E-03
               5.9501389337225452E-03
               5.4799174710199938E-03
              -8.4541152947606121E-04
               1.1152239383233913E-02
               8.8806880991543192E-04
               1.0108969862967403E-03
               8.4439048543138110E-03
              -1.3824848613754154E-02
              -6.9925170397883638E-03
              -3.6314816639065094E-03
               5.4431554384072166E-03
              -5.6597379172737355E-04
               3.2475309416664356E-03
               3.7200214164787603E-03
               8.3551981380295266E-05
              -4.9065377380251465E-04
               1.4823979749887866E-03
               1.3100038823230704E-02
              -8.7006834189768626E-05
              -4.1969247554079978E-03
               3.4205621592361692E-03
              -4.0262156247911750E-03
              -1.8936443031227078E-03
               7.4812837593829094E-05
              -2.2186687052460672E-04
               2.2196682006964509E-03
               6.2248781206379975E-03
              -2.9653353405944376E-03
               2.6944707413097588E-03
               2.1270796292027529E-03
               4.0665276481614519E-03
              -2.9644434802902817E-03
              -7.3865952238784584E-03
               3.6361492174839601E-03
              -5.0781602581902278E-03
              -5.0074458578699532E-03
               5.0856600753237712E-03
              -1.8293342521094691E-03
              -1.1146700305022206E-02
              -3.9381966727814769E-03
               5.3420566663357656E-03
              -2.8354436112009752E-03
               1.4831818448888142E-02
              -8.2775165449897152E-03
               1.0803320905716667E-03
              -1.3481707098978632E-02
               1.1434855163480076E-02
              -1.6709237161545499E-03
               1.1350506393525500E-04
              -4.5278086292745703E-03
               1.5424405649662448E-03
               2.1967487239485288E-03
               7.6855573766916839E-03
               1.8425683306411833E-04
               9.5143799826721866E-03
               9.6220349757696107E-03
               2.1278346897656942E-02
               1.5929780619487716E-02
               1.9521383158140639E-02
               7.1147980665688254E-03
               3.0304086458783760E-03
              -3.1437366096586758E-03
              -1.1425053735399720E-02
               3.2600672033317557E-03
               6.4425712443844478E-03
               7.9391608067651068E-03
              -5.4810136915381183E-03
              -1.0638437810022102E-02
               9.3829205909106567E-03
               2.8800734054536805E-03
               2.0162770519056203E-03
              -2.1525420382384839E-03
              -1.5968121596476427E-03
              -4.9400309759632466E-03
              -1.5757980944927568E-02
               4.6079079125813625E-03
               1.1037814304694494E-02
               7.0603569506569441E-03
              -3.0908811984417996E-03
              -1.1593300773351306E-03
              -6.6173469345398475E-04
               1.2772025301254826E-02
              -1.5141007025876391E-02
               8.9180857752646538E-03
               7.6013490692565140E-03
              -1.1740390870172590E-02
               3.5526282878871568E-03
              -1.3540306125504377E-04
               5.9626484854001984E-03
               1.0924303944496094E-02
              -3.0870261942768686E-03
               2.0056501823075834E-03
              -2.7981727653056871E-03
               2.5011055042187874E-03
              -2.3837876873884630E-03
               3.8246751118108150E-03
              -1.7021839046740860E-04
              -2.4451143127082508E-03
               5.3594126652478369E-03
              -4.5312619729420767E-03
              -5.3148472023479621E-04
              -7.2828869205840245E-04
              -1.4343455366056987E-02
               3.4601484496361579E-03
              -1.1813104093941748E-02
              -5.7255313334623357E-03
               4.7455939292713268E-03
              -2.0368551306912128E-03
               6.1510205121410204E-04
              -2.8216229111533769E-03
              -2.8598938080109278E-03
               1.0567562201997000E-02
               5.1841290919809766E-04
               3.9836660049148605E-03
              -1.5775775875509677E-03
              -3.1795740737581256E-04
              -4.6028340322228252E-03
               2.5824872300886743E-03
              -9.3460459183637029E-04
               1.0425257025020742E-03
              -1.2362475003848165E-03
               2.3257240853998490E-03
               4.1883056265925173E-03
               1.5114097699168174E-03
               2.0255097560256566E-03
               8.0538190705430716E-03
              -6.4586895487916147E-03
              -9.6109117230852646E-04
               3.5938966569198233E-03
               2.4447482537792138E-03
               1.3358334020600548E-03
               5.6104322536242469E-03
               2.7501882778131650E-03
              -5.9309367816606229E-03
               1.0442122829763343E-02
              -3.4094550035987105E-04
              -7.0873170749489968E-03
              -1.3261510286379894E-03
              -1.2622081327379527E-02
               2.3690148889272231E-03
               5.1347044678537951E-03
              -7.5446364464489533E-04
               2.6037332806303593E-04
              -1.1655639596218605E-02
               2.8739124368459554E-03
              -1.9553666263247885E-03
               2.8107304362924128E-03
               8.8457573452705904E-05
               8.3210093824998312E-03
               2.1016767643615149E-03
              -7.5091050142418051E-03
               1.1668711637651220E-03
               1.0655294591198036E-02
              -1.0889709238413960E-03
              -1.5972583749854805E-02
               2.3506748255651320E-03
              -1.5996484368673324E-03
               1.7446995193037704E-04
              -8.2798381352400924E-04
              -3.1045740645135513E-03
              -1.6475121458457112E-04
               8.6462042936594433E-03
              -1.3649623848405684E-02
              -1.0779270372096453E-02
               3.2646796284332719E-03
               1.0507591628051170E-02
               5.8032329726620947E-04
               7.1562022759466487E-03
              -2.3870014287986916E-03
              -3.0756112342307171E-03
              -1.7694000966501977E-02
              -3.1201158333774084E-03
               7.7847802117796006E-03
              -1.9529399038804101E-03
               6.6354033153880401E-03
               2.3819603509537416E-03
              -6.2659448622009962E-03
               6.9950072004788082E-03
              -4.3564177837402172E-04
              -2.1214568571735230E-03
               7.3201007299886576E-03
              -3.8278149285729218E-03
              -5.0911055745680306E-03
               8.1150509258732530E-04
              -4.7784354997095135E-03
              -3.5200950266051426E-03
              -1.0524586857627617E-03
               5.6168006064223298E-03
              -5.3963382811712396E-03
              -5.1681989056681608E-03
              -1.7054714469757698E-03
               5.7624285741400168E-03
              -3.8443935735232200E-03
              -4.1376740410915156E-03
               2.3365753518324989E-03
               5.3005730554859165E-03
              -7.7845794090894752E-04
              -6.7204682163180150E-03
              -2.1314530109742187E-03
              -3.7413883723221466E-03
               6.1637458659713016E-03
              -2.2094652961694352E-03
               1.5258842139892861E-03
               9.2831377912722557E-04
               1.3496773572413687E-03
              -1.7785042731562662E-03
              -1.1786340383161808E-03
              -6.5220070997618594E-04
               1.5973069352331838E-03
              -3.6618161164235306E-03
               7.9688100173243744E-03
              -2.7396404767327451E-03
               3.4546918887869418E-03
              -1.9836571756723076E-03
               4.3284320906344887E-03
              -1.9415584576067293E-03
              -8.2631315740103075E-04
              -5.1420314873157850E-03
              -1.0290842092143718E-02
               4.2943059737863346E-03
               6.5685867753899939E-03
               3.5918476552948171E-03
              -6.3099132665419867E-03
              -3.0156366051963738E-03
              -2.6796225507781982E-03
               2.8047398301876600E-03
               5.5836085750599141E-03
               3.4920937020670832E-03
               1.4783232528087272E-03
               4.3212503240107033E-04
              -3.1159413213654427E-04
               7.7723827011888218E-03
               9.1783760539763583E-03
               9.6731495288747103E-03
               9.2887008499716170E-04
              -1.1416886899053498E-02
              -2.4384153240189972E-03
              -3.8305895001403130E-03
              -3.3108895504013630E-03
              -6.7451974088729287E-04
              -9.8584258861965867E-04
              -1.5932201900731992E-03
              -9.1517613075276488E-03
              -1.3350286004112781E-02
               2.8311570638253217E-03
              -1.3115948283439170E-03
               1.7655280373540853E-02
               5.0380254940293181E-03
              -1.5694924980179557E-03
               2.7061576173013943E-03
               6.3624275044929192E-03
              -1.4674385891950579E-03
              -6.5178206364138536E-03
              -3.3707753645180810E-03
               1.0547932950558470E-02
              -7.7333911666018860E-03
              -6.7000865080270111E-03
               1.2181433006636098E-05
               3.7199161065522854E-03
              -3.4020740485841468E-03
              -5.3799100511975791E-03
               9.1312600164976925E-03
              -1.7299434108409147E-03
               6.6558136334301046E-04
               6.6847313225834887E-03
              -4.4802375069948365E-03
               3.0319497900003264E-03
              -3.1958536518708609E-03
               1.0462671770554120E-02
               1.4771352908457631E-03
               2.3645054029259745E-03
               3.2640440230180968E-03
              -5.2844617768085687E-03
               5.6387614763143642E-04
               6.8531967243811330E-03
              -2.1397231919187405E-03
               6.1083234486665394E-03
               5.4316585465415991E-03
               2.5016977882148439E-03
              -6.6994432929481278E-03
               2.4714947103121276E-03
               4.5364824904849072E-04
               9.0667873472232937E-04
               1.3806810105928980E-03
               2.5689153828553401E-03
               5.0616567256302515E-03
              -1.3271415284776473E-03
               1.2711107349170138E-02
              -1.5718235996090901E-02
               1.3117322605393287E-02
              -2.9570608018339851E-04
              -1.0451062889948598E-02
              -7.5211239367600656E-03
              -8.6357663451657309E-04
               8.9863777335827712E-03
               2.6617164618744763E-03
              -2.2925980366166627E-03
               5.7273359537527036E-03
              -4.6250650511731632E-03
              -5.8235970067450696E-03
               1.3476984820933990E-02
              -1.9784359653180400E-02
              -6.5408642953140800E-03
               2.0361630184970354E-04
               4.4585364148124031E-03
               1.4343234517747720E-02
              -1.4996758023612590E-02
               1.7266135688513106E-03
              -2.9374084629522745E-03
              -2.5837445914151215E-06
               2.0358102788604667E-03
               4.0595540787024950E-03
              -8.9270335040783841E-03
              -2.8442123078773141E-04
               5.7470181626940574E-03
               1.6917886842406000E-03
              -5.8196179317909769E-03
              -4.9512145948976357E-04
              -3.5276494390550930E-03
              -3.3228608657267524E-03
              -2.3092075137162997E-03
              -3.2089536739354019E-03
              -5.5889507392987807E-04
              -1.6365306346182754E-03
               3.9779412176361370E-03
               4.2791228599136383E-03
               1.2534522518074303E-03
              -4.9601315612590943E-03
              -7.5989493374701497E-03
               2.7406222336042753E-04
              -1.6639534790464170E-03
              -7.3602020389786542E-03
               2.3486306122224342E-03
               9.8434587997422440E-03
               6.4208877773967226E-03
               3.1612326841857726E-03
               1.4735979433829233E-02
              -1.3505598852754774E-02
              -2.6294232914453380E-03
              -6.6777219699600838E-03
               5.1017382950830879E-03
              -3.3763718132999443E-03
              -9.0904419199070493E-04
               2.6993745793340207E-04
               1.5418562572724778E-02
               2.5093596243687495E-03
               6.5605689075101991E-03
               5.7100287255612654E-03
              -1.6433542825506657E-04
              -2.4395983038380158E-03
              -1.5335891361514119E-03
              -3.7085548182303378E-03
               6.1766146988554912E-04
               3.0051934617683807E-03
              -1.1679465791699529E-03
               3.9797075194807329E-04
              -9.8698991775277804E-04
              -3.6820801082059374E-05
              -2.7049261657712243E-03
              -1.6187976703089850E-02
               5.3294861610979419E-03
               4.7387324333044087E-03
               9.1363220881309336E-03
              -3.6034417181014357E-03
              -2.0969086171900276E-03
         &END THERMOSTAT_ENERGY
         &RNG_INIT
Wiener process for Thermostat # 1        1 F T T   1.0570193072987602E-01        2554248455.0        3733268398.0        2096963647.0         915983833.0        1292997779.0         989563289.0             12345.0             12345.0             12345.0             12345.0             12345.0             12345.0             12345.0             12345.0             12345.0             12345.0             12345.0             12345.0
Wiener process for Thermostat # 2        1 F T T  -5.0729818522276993E-01         187792199.0        1332764939.0        1272087322.0         282682701.0         988697858.0        4086000388.0        3692455944.0        1366884236.0        2968912127.0         335948734.0        4161675175.0         475798818.0        3692455944.0        1366884236.0        2968912127.0         335948734.0        4161675175.0         475798818.0
Wiener process for Thermostat # 3        1 F T T   8.9774137220556466E-02        3755061031.0        1753083868.0        1351179932.0         343881147.0        3312142877.0        1244557929.0        1015873554.0        1310354410.0        2249465273.0         994084013.0        2912484720.0        3876682925.0        1015873554.0        1310354410.0        2249465273.0         994084013.0        2912484720.0        3876682925.0
Wiener process for Thermostat # 4        1 F T T   2.1447125495896904E-01        2430503636.0         902227617.0        3039217662.0         205693714.0        2375800914.0        4220709598.0        2338701263.0        1119171942.0        2570676563.0         317077452.0        3194180850.0         618832124.0        2338701263.0        1119171942.0        2570676563.0         317077452.0        3194180850.0         618832124.0
Wiener process for Thermostat # 5        1 F T T  -7.4974817695318574E-01        3949927612.0        4293465109.0         224208328.0         677588237.0        2173092809.0        2514687022.0        1597262096.0        3906379055.0        3312112953.0        1016013135.0        4099474108.0         275305423.0        1597262096.0        3906379055.0        3312112953.0        1016013135.0        4099474108.0         275305423.0
Wiener process for Thermostat # 6        1 F T T  -2.3195632299180402E+00        4147399821.0         968438491.0         174961265.0         382156541.0        3672303660.0        2385050302.0          97147054.0        3131372450.0         829345164.0        3691032523.0        3006063034.0        4259826321.0          97147054.0        3131372450.0         829345164.0        3691032523.0        3006063034.0        4259826321.0
Wiener process for Thermostat # 7        1 F T T  -8.3038096976097500E-03        3725962017.0        3124905816.0        1692649901.0        3685368087.0         990134651.0        3321809881.0         796079799.0        2105258207.0         955365076.0        2923159030.0        4116632677.0        3067683584.0         796079799.0        2105258207.0         955365076.0        2923159030.0        4116632677.0        3067683584.0
Wiener process for Thermostat # 8        1 F T T   7.2955713326517235E-01        1426374835.0        1022225665.0        3431852557.0        2945126969.0        1347790872.0        2047858768.0        3281794178.0        2616230133.0        1457051261.0        2762791137.0        2480527362.0        2282316169.0        3281794178.0        2616230133.0        1457051261.0        2762791137.0        2480527362.0        2282316169.0
Wiener process for Thermostat # 9        1 F T T  -8.3876742673612970E-01        3633457436.0         863053678.0         665967915.0         928783000.0        4027924725.0        3556250224.0        3777646647.0        1837464056.0        4204654757.0         664239048.0        4190510072.0        2959195122.0        3777646647.0        1837464056.0        4204654757.0         664239048.0        4190510072.0        2959195122.0
Wiener process for Thermostat # 10       1 F T T  -6.7138423863751628E-01        3282585865.0         909372753.0         488063086.0        2442536289.0         174422437.0         477575080.0        4215590817.0        3862461878.0        1087200967.0        1544910132.0         936383720.0        1611370123.0        4215590817.0        3862461878.0        1087200967.0        1544910132.0         936383720.0        1611370123.0
Wiener process for Thermostat # 11       1 F T T  -7.2169956836733329E-02        3039538231.0          25912629.0        1608189467.0        1823124278.0        2331127605.0        2449500504.0        1683636369.0         362165168.0         814316280.0         869382050.0         980203903.0        2062101717.0        1683636369.0         362165168.0         814316280.0         869382050.0         980203903.0        2062101717.0
Wiener process for Thermostat # 12       1 F T T  -6.7722400494670465E-01        2762226669.0        4262778377.0        2250707948.0        3120407528.0        3704866228.0        1185520965.0         272317999.0         166758548.0         310112982.0         201045826.0        1680231254.0         118290799.0         272317999.0         166758548.0         310112982.0         201045826.0        1680231254.0         118290799.0
Wiener process for Thermostat # 13       1 F T T  -7.3817531449270457E-01        3689403510.0         367299738.0        3636386471.0        1925893934.0        3355800516.0        3520562622.0        2245755202.0        1652682525.0        2865544364.0         721509566.0         209733568.0         592362218.0        2245755202.0        1652682525.0        2865544364.0         721509566.0         209733568.0         592362218.0