 # Version information for this restart file 
 # current date 2022-11-29 18:12:08.877
 # current working dir /scratch/work/courses/CHEM-GA-2671-2022fa/mf4024/comp-lab-class/Week12/Runs/Protons
 # Program compiled at                              Sat Dec 12 18:27:15 EST 2020
 # Program compiled on                                         cs001.nyu.cluster
 # Program compiled for                                                nyu-intel
 # Source code revision number                                       git:8c64c6e
 &GLOBAL
   PRINT_LEVEL  LOW
   PROJECT_NAME proton_aimd_1ns_every0.5fs
   RUN_TYPE  MD
   WALLTIME 21600
 &END GLOBAL
 &MOTION
   &GEO_OPT
     OPTIMIZER  BFGS
     MAX_ITER  100
     MAX_DR     3.0000000000000001E-03
     &BFGS
     &END BFGS
   &END GEO_OPT
   &MD
     ENSEMBLE  NVT
     STEPS  2000
     TIMESTEP     4.9999999999999994E-01
     STEP_START_VAL  1000
     TIME_START_VAL     4.9999999999999636E+02
     ECONS_START_VAL    -1.1027290848025568E+03
     TEMPERATURE     3.0000000000000000E+02
     &THERMOSTAT
       TYPE  GLE
       REGION  MASSIVE
       &GLE
         NDIM  5
         A_SCALE     1.0000000000000000E+00
         A_LIST     1.8595758612559999E+02    2.7263853498399998E-01    1.1526100454610001E+01   -3.6414578262600003E+01 \
             2.3173375816020001E+02
         A_LIST    -2.7809524712060002E-01    8.5951591808710006E-05    7.2189048017650004E-01   -1.9844539343859999E-01 \
             4.2409257583420001E-01
         A_LIST    -1.4825808131210000E+01   -7.2189048017650004E-01    1.3590902121280000E+00    5.1498896280349999E+00 \
            -9.9949268450990001E+00
         A_LIST    -1.0372189126880000E+01    1.9844539343859999E-01   -5.1498896280349999E+00    2.6661910891169999E+01 \
             1.1507715495310000E+01
         A_LIST     2.1801346360420001E+02   -4.2409257583420001E-01    9.9949268450990001E+00   -1.1507715495310000E+01 \
             3.0958394565589998E+02
         &THERMOSTAT_ENERGY
               9.2630969942459522E-04
              -2.6378748002828874E-04
              -1.4403182470861401E-03
               4.8545021212194651E-03
              -1.2961899404085776E-02
              -3.1417521385683229E-04
              -2.6303848817683531E-03
              -3.6902965388195689E-03
               4.4223672696286492E-03
               4.5746662975174289E-03
               8.6938192252412772E-03
              -3.8653286153028706E-03
              -4.9509070020370355E-03
              -6.4506345846796626E-03
               3.2470167312217404E-03
              -6.3713573196467815E-03
               5.5395161828392702E-03
              -3.7803943741571569E-03
               4.4902852390410206E-03
              -8.4842173654122127E-04
               1.1311725303573190E-03
               2.7027931923649180E-03
              -1.0033700041794432E-02
               1.4340388695808818E-03
               3.5753294493048247E-04
              -6.7712241277562112E-03
               2.2844575805489016E-03
               7.9369564696463602E-03
               3.5308770850487944E-03
               2.2114175473259131E-03
              -5.5280113809083936E-03
              -1.0476575763784404E-03
               8.5363303365353620E-03
               5.3017349313814726E-03
              -1.0528512176012299E-02
               9.3748360869044846E-03
              -3.7155646035629260E-03
               1.4783471427286979E-03
               1.9274646486893926E-03
              -7.8425078896811433E-03
               5.5752051028833439E-03
               8.0121309721409685E-04
               7.4746526925938313E-03
               4.0079049940843032E-03
              -3.5464193510734623E-03
               8.2652285897812637E-04
              -6.4003338894545840E-03
               4.3264676223942738E-03
              -3.2400234387006772E-04
              -2.4604268772903557E-03
               3.1420383193209011E-03
              -6.1234418778553434E-03
              -5.7888050957180769E-03
               4.1722689341753315E-03
              -1.8172513308218326E-03
               3.2120136345443547E-03
              -2.5877243550126677E-03
               2.0986402939473015E-03
               5.0768464552172600E-03
               2.8681804016963573E-03
              -7.6014246632845591E-03
               2.2272660822899954E-03
               1.5955635672584463E-02
              -3.0050979221243972E-03
              -1.1303985695612223E-03
               5.1535937333201521E-04
               8.6972105921015843E-04
               6.4502566117956937E-03
               5.5165677336422823E-03
               2.7882063967112276E-04
              -1.8775213217327800E-03
               1.8013763306493676E-03
              -2.1317989344710291E-03
               6.0037748907660060E-03
              -2.5463877481142661E-03
              -1.1236653571474383E-02
               8.9264430797085619E-03
               5.4633785645086495E-03
               1.7639758521571510E-02
              -7.0325342582719351E-03
              -8.5211317155999156E-03
              -1.9060543990583882E-03
               1.8207028981305677E-03
              -5.9061065619421115E-04
               2.8257962367375209E-03
               6.4172345516292162E-03
              -1.8685975482302796E-03
              -2.4797231845693902E-03
               2.1476128986188188E-03
              -1.4316991345651750E-03
               2.1343558981400889E-03
              -4.9487343201305815E-03
               5.9724231350604985E-03
              -4.4900442223521570E-03
              -1.4811563665584450E-02
               1.4404006767618275E-02
               3.0858434401705524E-03
               5.8684505863629095E-03
               6.0226146994526251E-03
               5.9355392192452102E-04
               6.3080388871400899E-03
              -6.0184747875889838E-03
              -5.5252597564385865E-03
               6.8445446713191168E-03
               4.6368312970768467E-03
               1.6878940530147834E-02
               1.6543371681376220E-02
               7.3669224117563232E-03
               3.5563520126900079E-03
              -2.7598868842779872E-03
              -6.9268683108158341E-04
              -7.8145439548803590E-03
               4.9161819425377895E-03
               1.1537700782961666E-02
               4.8362524281342235E-03
               2.8304717630762222E-03
              -1.1192540104594135E-02
               3.4464396741835162E-03
               1.4458180349911718E-03
              -1.2488506905703233E-03
               1.0153569697747555E-04
               6.1161368890926982E-03
               2.0254078032274207E-03
               9.0614143054639270E-03
              -4.5958502528114864E-03
              -6.5823104830682443E-03
               1.9995082004647820E-03
              -2.9425586479063003E-03
               2.3035613000451918E-03
              -7.5214308339679892E-03
              -9.3668610303445244E-03
               7.7951360059409945E-03
               1.2178829394143198E-03
               4.9396663832386254E-03
               2.6296634778196484E-03
               2.1993281918128568E-03
              -4.5365032114347194E-04
              -4.7009491468550969E-03
               1.2821986678987997E-03
              -1.2405727129775094E-02
               2.2541695033461880E-03
               5.9704256008933764E-03
               7.9737347141034462E-03
               1.1789863621272834E-03
              -5.8938655669728106E-03
              -3.5919860937391811E-04
               7.2278630024694293E-03
              -1.0920271508491678E-03
              -2.3794911736817592E-03
              -7.6420137849337471E-04
              -5.6811469119577920E-03
               4.0225197768866232E-03
              -1.6754248638282292E-04
              -4.2704025318600109E-04
              -1.3218098974853995E-03
               6.8976401010768069E-04
               4.2624122242911739E-04
              -5.3582841522943556E-03
              -1.0167567691777555E-03
               2.8699620657674867E-03
               1.8370289073708971E-03
              -1.4310893291532899E-03
              -1.5049134775750117E-03
              -1.5884708551010672E-03
               3.6865051786712198E-03
               1.0977556318798138E-02
               6.4605619854139311E-03
              -3.1938642341119358E-03
              -5.7669230903102508E-03
              -1.3612193365879440E-03
              -4.8933419023664655E-04
              -7.0276860249458744E-03
               1.0952404293511997E-04
              -6.5526159486309138E-03
               2.3666322932007532E-03
               3.6321799194554204E-03
               1.2230118774225431E-04
              -4.9089974671042487E-04
               3.5083694175126411E-03
               1.1810912920191695E-02
               3.2753020395826717E-03
              -2.8504150536168842E-03
               2.2873521703456363E-03
              -7.9965407634272900E-03
               5.0687143440284847E-03
              -2.0727982962223759E-03
              -9.2111424368634849E-03
               5.0035797331991318E-03
              -1.0986369724021673E-03
               7.0240191660173815E-04
               2.8532566177652471E-03
              -2.1801181261154661E-03
               2.6155255131571500E-04
               9.2191825097782051E-03
               1.7767889059792333E-03
              -1.4064956762547998E-03
              -3.7504506925935058E-03
               8.0361944368615434E-03
               3.6181991815555889E-04
               7.1923352018621030E-04
               1.1767322860450045E-03
              -7.5930134120792102E-03
               7.8353996206021268E-03
               2.9876437010524781E-03
              -1.8301010354065993E-03
               8.2003398289369218E-04
              -3.5804054903746441E-03
               3.6887075635797842E-03
               5.0576850137440477E-03
               8.7683718544729337E-04
               6.4724785776854553E-05
              -3.9145590803693758E-03
               2.2992182605780301E-03
              -5.9174688746632606E-03
               1.1394050356628184E-03
               2.5977526061526186E-03
              -3.4194402577985145E-03
               7.0492112955493295E-03
               2.9824374145317513E-04
               1.2790113146064202E-03
               1.4684462846599579E-03
              -8.0729395198627357E-03
              -7.1460586815878507E-03
               9.6964971433028038E-03
               2.9109799877929596E-03
              -2.7593929187787313E-03
               1.2574339559058159E-03
               5.1475353057741681E-03
               2.8514604213853876E-03
              -4.6105085075943183E-03
              -4.6742518809059832E-04
               7.2397418728512714E-03
               5.9563692931830978E-04
              -6.0582036596819027E-03
               2.8592242500230531E-03
              -1.3588995374042433E-03
              -1.7055889506449350E-03
               7.5488330906258184E-05
              -1.6469927306574771E-03
              -1.1188423246515692E-03
               5.3821818825999729E-03
              -8.5822198535764668E-03
               8.7015794460370277E-03
               2.9814363502911551E-03
               4.3994788350462501E-03
              -3.2333891469894815E-04
              -8.5774610383398207E-03
              -1.6720990103814327E-03
              -5.2585030646389920E-04
              -3.4453476042734434E-03
               2.1640884287949798E-03
              -3.1850514595225133E-04
              -8.8063631127617455E-03
              -2.7584332510537141E-03
               9.6396625323200694E-06
              -2.5347411577891815E-03
               1.4873074874482230E-02
              -6.1294302467262253E-03
               2.1320867799746895E-03
              -1.3699300012565925E-02
               1.0368963985609780E-02
               1.8781260881279638E-03
              -3.2820366092104825E-04
              -4.0842600039135814E-03
               2.5743150398660226E-03
               6.3950712769547929E-03
               7.6860287531395535E-03
               1.8947434786491409E-03
              -2.3698743222422053E-03
               7.8535456736369830E-03
               2.9668788793595694E-02
               1.3733396648261021E-02
               1.5424501720916139E-02
               6.9566718249048322E-03
              -1.4347218638977323E-04
              -7.0857727390090993E-04
              -7.5450998114082179E-03
               7.3669597651886600E-03
              -1.4870318516250339E-03
               4.0791367333063632E-03
               1.6550155849957664E-05
              -1.1495170185291073E-02
               6.9240695457103915E-03
               1.0410309424323467E-03
               2.8912601837957834E-03
              -1.0996894568999097E-03
              -9.5475382719673160E-04
              -5.8404316561598358E-03
              -1.1711316864900354E-02
               9.4427770336068580E-03
               4.5443440017607617E-04
               3.7489708511755700E-03
               1.4923556939172205E-03
               2.3781853477446175E-03
              -7.8913422833667654E-04
               5.9562701567595347E-03
              -4.2370279113576248E-03
               8.3542099392965915E-03
               6.6096792871208330E-04
              -8.4877945525466490E-03
              -7.3081095983024830E-04
               2.7092876799273045E-03
               5.4275575916218890E-03
               8.3587626322548826E-03
              -2.7515509868762415E-03
               7.0261874229231443E-04
              -2.1480518250114235E-03
               5.0920865854684498E-03
              -4.8130030470142186E-03
               5.7803284765344572E-03
              -2.8552521229073032E-03
              -1.4911675152462309E-03
              -3.9534754270801227E-03
               1.5394769785258490E-03
               1.6879673546931465E-03
              -1.7898189267720702E-03
              -9.6049665379154131E-03
               1.9550876100551872E-03
              -6.6221298592019128E-03
              -2.7625820134250870E-03
               5.1277432269566745E-03
              -1.0694677222982574E-03
               2.0000597875525516E-03
              -2.6591975869987910E-03
               1.9646697369188086E-03
               2.9055617463041635E-03
               3.3391480651810235E-03
               4.5149338847371253E-04
               3.5976028206567254E-03
              -5.1038820957298935E-04
              -3.1612086905851099E-03
              -1.3221249072642130E-03
               1.5939081667863042E-03
               2.8137864209112919E-03
              -6.0508455335189374E-03
               4.7762511726898100E-03
               4.8928060904153657E-03
              -2.3243075364042880E-03
               9.3614984679783850E-04
               6.8772701516442636E-03
              -6.3285107013662054E-03
               2.6329917054902861E-04
               6.3193802643466924E-03
               2.3745277691938293E-03
               1.8986703430833749E-03
               3.6762074759337437E-03
              -3.7010228157343858E-04
              -3.1274750603405691E-03
               5.9799413825250324E-03
              -1.0944869257188319E-03
              -1.0703413044311823E-03
              -6.9071708436198862E-04
              -6.5197737681340386E-03
               1.7826783925574147E-03
               2.2898820129126207E-03
              -1.7330647016814825E-03
              -1.8533961814395097E-03
               3.4003822447395793E-03
              -4.9322885295682581E-03
               7.2538655971207482E-04
              -2.3214700007319015E-03
               4.8912983635363049E-03
               5.5156919100096142E-03
               1.2729029775630672E-03
              -1.4069087035271390E-03
               8.5953100629248603E-04
               1.3423254986336470E-02
               1.1435406427651085E-03
              -1.7753512544464344E-02
               1.0173981597959654E-03
              -5.5747208202701027E-03
               2.0138739798088176E-03
              -5.8410396546484662E-04
               1.2236081300785791E-03
              -1.6795128562715588E-03
               3.4825163686312815E-03
              -6.5560223680530567E-03
              -5.9806737551511809E-03
              -1.4788678658005983E-03
               5.0725475817937704E-03
               2.7055705407161923E-03
               1.1816350265177900E-03
              -1.5709253799015542E-03
              -1.8897663813179704E-03
              -8.1636545433179421E-03
              -4.0838507426474056E-04
               3.0334261152914254E-03
               4.4632847993221871E-03
              -1.6462337863259254E-03
               4.8263815400622643E-03
              -3.1430722096745830E-03
               2.9771886745128310E-03
              -1.7561515183899751E-03
              -5.7860361556910274E-03
               6.3863873457094007E-03
               1.1006160538443379E-03
               1.8098253729794771E-03
              -5.2016695066043239E-04
              -3.6153672501525683E-03
              -3.5595961632411172E-03
              -2.2565898667728434E-05
               2.2309277369862075E-03
              -1.0612624768298543E-03
              -3.8581879183261620E-03
              -1.5192191932134812E-04
               6.2983527110230392E-03
              -9.4487233987164366E-05
              -7.2702573200690099E-03
              -2.8716197742963720E-04
               3.9601642277454600E-03
               2.4565276904566884E-03
              -1.8847769196498228E-03
              -2.5551619730683150E-03
              -3.2291033878830856E-03
               3.8932868993281277E-03
              -5.1283981362255308E-04
              -2.0605942316044438E-03
               3.1104134789217662E-03
              -2.6079741285145984E-04
               3.3940219812370583E-03
               5.6864040735590832E-03
              -3.2905590821561402E-03
              -1.6079829055237072E-03
              -3.8966312589754776E-03
               4.4450895047683228E-03
               3.4587767649433833E-05
               1.4756909832593828E-03
              -4.5517400280907219E-03
               4.2298252572538090E-03
               6.9166225820632785E-03
               4.1992777810455643E-04
              -6.9927394843848694E-03
              -5.9637409188945632E-03
               1.9523817391033105E-03
               4.4787604599070569E-03
               2.7992758887851448E-03
              -4.5703560143990395E-03
              -2.2972627659287991E-03
               1.7032249865787260E-03
               3.0460769982328254E-03
               1.0386034096368749E-02
              -9.1973567985628051E-04
              -7.3958477299688032E-04
               4.8239480951159808E-04
              -3.8553579960767630E-04
               7.7749291462471523E-03
               7.5116949743869038E-03
               6.6146889510601105E-03
               1.0553158086842531E-03
              -8.9890688930798681E-03
              -1.8862842120837442E-04
              -8.2027789553770752E-03
               5.4823143376369547E-05
              -2.8422375839118222E-03
              -1.0931958889442218E-03
              -1.0916314467549111E-03
              -1.9025490029206454E-03
              -2.8468866476599195E-03
              -4.5179845552707055E-04
              -2.5172311679915950E-03
               7.2948557909672277E-03
               8.3614620435450149E-03
              -2.8289292499808286E-03
               2.2947296337945790E-03
               5.6336377892854273E-03
               2.5476888013307138E-03
              -1.7122558429945598E-03
              -6.1321389432365779E-03
               6.3070914351177117E-04
              -8.6029943253175252E-04
              -2.1410043180937312E-03
               4.8953473219680397E-04
               1.3091265275940735E-03
              -3.9526105349680972E-03
              -3.3228519809771562E-03
               4.4058884457250386E-03
               5.8736300567853450E-04
              -3.6659758502273383E-03
               4.8960210836304172E-03
               1.2966481368876660E-03
               1.6855011850256132E-03
              -2.4516156989405251E-03
               7.0745498389879029E-03
               3.4372478010909332E-03
               1.6888168870378842E-03
              -4.7261614561768997E-04
              -2.9058039284931892E-03
              -1.2134500554237795E-03
               3.3612583142765494E-03
               6.5335070456761608E-04
               4.0683170536394715E-03
               7.5395199661735879E-03
               3.4384457914959270E-03
              -7.3242202998536586E-03
               4.6290642198769860E-03
               9.3346833291299612E-04
               1.8989324773872722E-03
              -7.2150675421182072E-04
               2.4781869603132216E-03
               2.5728719814029789E-03
              -4.4933116504183484E-03
               7.6397531808366434E-03
              -1.4392431731906059E-02
               1.6751109134177510E-02
              -2.8273642803064453E-03
              -6.5702219481061190E-03
              -4.6327888494965691E-03
              -6.5964501011949491E-04
               4.9604851527038623E-03
               2.1735404344037977E-04
               1.5633236494276065E-03
               2.2487351299858502E-03
              -4.2989526597158470E-03
              -8.8719656043621774E-03
               9.3137896828194133E-03
              -6.2754248184216386E-03
              -6.1928979444301471E-03
               3.1945237284356255E-03
               3.4239883712566970E-03
               5.7018072723660825E-03
              -1.1057424424410857E-02
               3.7444110718436729E-03
              -3.5211133377140423E-03
               2.7210572030410183E-03
               2.9811176951392523E-03
               3.0154111151869402E-03
              -5.7147812468757242E-03
               1.5193818249295775E-03
               9.5573657181038485E-06
               5.8042657963989844E-03
              -6.5166096038498638E-03
              -1.4061535015923636E-03
              -1.3188069347151333E-03
              -2.0404095533315021E-04
               1.7638197997687905E-03
              -1.1668310853056366E-03
              -3.4354371841130579E-04
              -4.9211196265697144E-03
               5.3379974915164095E-04
               7.3432572568321230E-03
              -1.0063282015558730E-03
              -2.4426537483121123E-03
              -8.0550615277815082E-03
              -1.5819462896628591E-03
              -1.2379655537288136E-03
              -5.0772261199436277E-03
               1.9054791466229738E-03
               5.2743673779493275E-03
               5.2506858619941251E-03
               2.0410352902062296E-04
               1.0160359537884455E-02
              -1.4470378566582323E-02
              -1.2022783436234068E-03
              -5.9084605603703100E-03
               3.2275998280896869E-03
              -3.0492928241885272E-03
              -4.4645681824532464E-03
              -2.1755975852785440E-03
               9.8587253188273175E-03
               4.0091463171845337E-03
               7.4016072555028196E-03
               2.8191113067057611E-03
               2.4387241062584194E-03
               9.7462583660688610E-04
              -5.6391496477866312E-03
              -9.5900074776561096E-05
              -1.8234461396243833E-03
              -1.2038988609450951E-03
               1.0714773706379406E-03
               5.0870169261227598E-04
              -2.5030185275001348E-03
              -9.5237313042894766E-04
              -3.7283847910377700E-03
              -1.1710512689619024E-02
               2.0485051410854952E-03
               3.6046142887299825E-03
               8.2238738687999500E-03
              -4.8218923873175762E-04
              -2.9463617444245626E-03
         &END THERMOSTAT_ENERGY
         &RNG_INIT
Wiener process for Thermostat # 1        1 F T T  -9.8236738167888460E-01         226733040.0        4248387519.0        1164353849.0        2758509449.0        3644127687.0        1764793484.0             12345.0             12345.0             12345.0             12345.0             12345.0             12345.0             12345.0             12345.0             12345.0             12345.0             12345.0             12345.0
Wiener process for Thermostat # 2        1 F T T  -1.4171306107827426E+00        1528154308.0        2775625301.0         197130159.0        1452211673.0        1835562137.0        1983376171.0        3692455944.0        1366884236.0        2968912127.0         335948734.0        4161675175.0         475798818.0        3692455944.0        1366884236.0        2968912127.0         335948734.0        4161675175.0         475798818.0
Wiener process for Thermostat # 3        1 F T T   8.6049543281786645E-01        2248570378.0        1724762616.0          52903713.0        3229622658.0        3199004837.0        4241126217.0        1015873554.0        1310354410.0        2249465273.0         994084013.0        2912484720.0        3876682925.0        1015873554.0        1310354410.0        2249465273.0         994084013.0        2912484720.0        3876682925.0
Wiener process for Thermostat # 4        1 F T T  -1.5460863137690717E+00         957380376.0         510326667.0        2247033635.0        2033071685.0        3054261466.0        3462352516.0        2338701263.0        1119171942.0        2570676563.0         317077452.0        3194180850.0         618832124.0        2338701263.0        1119171942.0        2570676563.0         317077452.0        3194180850.0         618832124.0
Wiener process for Thermostat # 5        1 F T T   1.5428690481661575E-01        4203301200.0         738999836.0        1485820986.0          20648636.0        2223680357.0        4294941489.0        1597262096.0        3906379055.0        3312112953.0        1016013135.0        4099474108.0         275305423.0        1597262096.0        3906379055.0        3312112953.0        1016013135.0        4099474108.0         275305423.0
Wiener process for Thermostat # 6        1 F T T   7.0411917217518150E-01        1265311014.0        3687607523.0        1792102642.0         142025920.0         459804801.0        1211121065.0          97147054.0        3131372450.0         829345164.0        3691032523.0        3006063034.0        4259826321.0          97147054.0        3131372450.0         829345164.0        3691032523.0        3006063034.0        4259826321.0
Wiener process for Thermostat # 7        1 F T T  -9.5744195640119531E-02        4040223344.0        4246262317.0         329086624.0          28777921.0        2946509694.0        1489700490.0         796079799.0        2105258207.0         955365076.0        2923159030.0        4116632677.0        3067683584.0         796079799.0        2105258207.0         955365076.0        2923159030.0        4116632677.0        3067683584.0
Wiener process for Thermostat # 8        1 F T T  -1.2413826789147817E-01         252045112.0        2848200345.0         154646410.0        1271924195.0        1873079261.0        3351978939.0        3281794178.0        2616230133.0        1457051261.0        2762791137.0        2480527362.0        2282316169.0        3281794178.0        2616230133.0        1457051261.0        2762791137.0        2480527362.0        2282316169.0
Wiener process for Thermostat # 9        1 F T T   1.0331244080464512E+00        3784506675.0        1914172684.0        3527875272.0        1610827989.0        3855196701.0        1117597481.0        3777646647.0        1837464056.0        4204654757.0         664239048.0        4190510072.0        2959195122.0        3777646647.0        1837464056.0        4204654757.0         664239048.0        4190510072.0        2959195122.0
Wiener process for Thermostat # 10       1 F T T   2.1466585360569199E-01        3057685686.0        2869029583.0         411221469.0        2821893460.0         322924656.0        1143227575.0        4215590817.0        3862461878.0        1087200967.0        1544910132.0         936383720.0        1611370123.0        4215590817.0        3862461878.0        1087200967.0        1544910132.0         936383720.0        1611370123.0
Wiener process for Thermostat # 11       1 F T T  -4.4132046785776799E-02        1554543736.0        2717576499.0        4135075403.0        2618383353.0         642871762.0         249586537.0        1683636369.0         362165168.0         814316280.0         869382050.0         980203903.0        2062101717.0        1683636369.0         362165168.0         814316280.0         869382050.0         980203903.0        2062101717.0
Wiener process for Thermostat # 12       1 F T T  -5.6161533877704317E-01        1770324141.0        3770017049.0         190859559.0         764828178.0        2918138424.0         736540625.0         272317999.0         166758548.0         310112982.0         201045826.0        1680231254.0         118290799.0         272317999.0         166758548.0         310112982.0         201045826.0        1680231254.0         118290799.0
Wiener process for Thermostat # 13       1 F T T   9.7554409384929153E-01        3627045108.0        1898589428.0        2752141753.0          85759421.0        2499273175.0        1137986601.0        2245755202.0        1652682525.0        2865544364.0         721509566.0         209733568.0         592362218.0        2245755202.0        1652682525.0        2865544364.0         721509566.0         209733568.0         592362218.0