 # Version information for this restart file 
 # current date 2022-11-29 16:55:26.673
 # current working dir /scratch/work/courses/CHEM-GA-2671-2022fa/mf4024/comp-lab-class/Week12/Runs/Protons
 # Program compiled at                              Sat Dec 12 18:27:15 EST 2020
 # Program compiled on                                         cs001.nyu.cluster
 # Program compiled for                                                nyu-intel
 # Source code revision number                                       git:8c64c6e
 &GLOBAL
   PRINT_LEVEL  LOW
   PROJECT_NAME proton_aimd_1ns_every0.5fs
   RUN_TYPE  MD
   WALLTIME 21600
 &END GLOBAL
 &MOTION
   &GEO_OPT
     OPTIMIZER  BFGS
     MAX_ITER  100
     MAX_DR     3.0000000000000001E-03
     &BFGS
     &END BFGS
   &END GEO_OPT
   &MD
     ENSEMBLE  NVT
     STEPS  2000
     TIMESTEP     4.9999999999999994E-01
     STEP_START_VAL  500
     TIME_START_VAL     2.4999999999999795E+02
     ECONS_START_VAL    -1.1027290848025568E+03
     TEMPERATURE     3.0000000000000000E+02
     &THERMOSTAT
       TYPE  GLE
       REGION  MASSIVE
       &GLE
         NDIM  5
         A_SCALE     1.0000000000000000E+00
         A_LIST     1.8595758612559999E+02    2.7263853498399998E-01    1.1526100454610001E+01   -3.6414578262600003E+01 \
             2.3173375816020001E+02
         A_LIST    -2.7809524712060002E-01    8.5951591808710006E-05    7.2189048017650004E-01   -1.9844539343859999E-01 \
             4.2409257583420001E-01
         A_LIST    -1.4825808131210000E+01   -7.2189048017650004E-01    1.3590902121280000E+00    5.1498896280349999E+00 \
            -9.9949268450990001E+00
         A_LIST    -1.0372189126880000E+01    1.9844539343859999E-01   -5.1498896280349999E+00    2.6661910891169999E+01 \
             1.1507715495310000E+01
         A_LIST     2.1801346360420001E+02   -4.2409257583420001E-01    9.9949268450990001E+00   -1.1507715495310000E+01 \
             3.0958394565589998E+02
         &THERMOSTAT_ENERGY
              -2.7393630705426315E-03
              -6.6593820888188415E-04
              -2.6720644456569088E-05
               1.3417437427691707E-03
              -7.2261457742123746E-03
               2.5289327015131226E-04
              -2.7675279269174569E-03
              -3.3788578834855715E-03
               7.6385629571985433E-03
               2.4812021155675916E-03
               6.2453433014321843E-03
              -3.1077933283473898E-03
               2.3281431210366355E-03
              -1.5996463586509166E-03
              -2.9037663651181717E-04
              -3.2261306299023783E-03
               1.4578290266310647E-03
              -3.1591034050539582E-03
               4.3137810000614214E-03
              -6.9413143790832111E-04
               7.7860437109586607E-04
              -4.8113490834142316E-04
              -3.1805368130348997E-03
               3.7856470947156356E-03
               2.8297635874757830E-04
              -4.6347550577102922E-03
              -1.6129940134519455E-03
               7.4787018954144803E-03
               3.7414542599201932E-04
               3.9824552241285135E-04
              -4.3912818693937969E-03
               3.4296122634895690E-03
               7.4924647824262617E-03
               1.1481920927418324E-04
              -9.6423528339687294E-04
               3.8111002212988685E-03
              -1.2999283451929230E-03
               6.2227025787541012E-04
               9.6143923766890248E-04
              -5.5345343411719828E-03
               3.9511208335393441E-03
               2.7006388355053413E-04
               3.1568405057963394E-03
               1.3941579976505590E-03
              -7.1384418440070055E-03
               2.6339252102058294E-03
              -9.2643717131811140E-04
               3.6826772801301587E-03
              -6.7100201869083774E-03
               1.7269962824400867E-03
               8.8960348518007633E-04
              -6.2819629614817686E-03
               5.3273397425361916E-04
               4.9994250202564389E-03
              -4.4226357283974364E-03
               4.9291456761464810E-03
              -1.4366726749271755E-03
               4.6056276713833297E-04
               3.0526812770510260E-03
               3.9967959767434882E-03
              -3.5945701725157847E-03
               2.7561166194091779E-03
               8.3274807511972936E-03
               4.3607040547794055E-04
              -1.6865179909503261E-03
               1.8920105254063644E-03
              -2.7440169657236375E-03
               6.2384049291363689E-03
               4.9350443230722161E-03
              -2.5189241320633096E-03
               2.4979637751426286E-03
               2.8628649835941576E-03
              -1.4975018057291074E-03
               1.3801233235730475E-03
              -2.3425146904960410E-03
              -4.4661379615345493E-03
               6.7184534213208871E-03
               2.1156035768131261E-03
               1.3158725308235513E-02
               3.3988611863842444E-03
              -4.2001780125866346E-03
              -2.8729932838679720E-03
               2.0945082706606993E-03
              -1.4162536080042805E-03
               3.1967777760500186E-03
               5.9871910019216874E-04
              -5.4794237077377874E-03
              -8.0102287869521747E-04
               1.4663755017106019E-03
              -2.5987489555850188E-03
               3.1863828445939362E-03
              -4.0904214214082264E-03
               3.4455061962023726E-03
              -1.9294576938340832E-03
              -9.8863341395425894E-03
               1.0114468454282106E-02
               1.9337251258799164E-03
               2.2792758666552613E-03
               4.2046044535655139E-03
               7.0650255706373869E-04
               5.0384962708065967E-03
              -3.8466581303500257E-03
              -3.5353038249703508E-03
               1.0884746003893603E-02
              -3.9516828126366979E-04
               1.5651000439535604E-02
               1.6599992581767843E-02
               8.2848070663404608E-03
               4.6640066556857818E-03
               3.5451980317598321E-04
               2.3415310952196525E-03
              -1.5856031928772303E-03
               2.5159419334012906E-03
               2.2246656028468131E-03
               3.4132118257379513E-03
               4.3228552815844888E-03
              -7.7089261670985022E-03
               2.4535242815217472E-03
              -3.8240518938193677E-03
               3.7878385063051622E-04
              -9.8384078822147955E-04
               3.1766869397373619E-03
               4.9390276910779487E-03
               7.6778172967094304E-03
              -3.8001117259359712E-03
              -1.5451203900867403E-03
              -1.1528511951914061E-03
              -9.2432662307369794E-05
               2.0489778627590226E-03
               3.3220458281643878E-03
              -6.2065593823042824E-03
               3.8478280167945720E-03
              -8.6826296149829923E-04
               1.9546408687713267E-04
              -1.9458058167323732E-03
               1.7298692864786010E-03
              -3.5112880007376985E-03
               4.5748794777742286E-04
               5.6342362134595262E-04
              -6.5817829651580425E-03
               6.1897356374808910E-03
               5.4531095589482187E-03
               2.6454063241709278E-03
               2.2159457031359067E-03
              -5.1450173526079307E-03
              -1.4286828134779275E-03
               4.5002473186305618E-03
              -8.0760685386704043E-04
              -2.3247110426128184E-03
               8.7146578905762662E-03
               1.3457481292265724E-04
               3.7427971167733684E-04
               7.1694606487651908E-04
               1.1209339256074074E-04
               4.2004932837338700E-04
              -3.2612578050886035E-03
               1.0753167574232105E-03
              -4.1956360551978775E-03
              -2.3230117725987036E-03
               3.1321999120692188E-03
              -5.1246978188392378E-03
               6.2518401432279575E-04
              -3.1107742688808764E-04
              -2.0088606766180627E-03
               2.7103899634356495E-03
               6.4459971644964262E-03
               1.0183135946577667E-03
              -5.4343582816268011E-03
              -2.2824540272718239E-03
               2.7070896367553323E-03
               2.4658156536263475E-04
               1.5896638340812243E-03
               4.0135788518226470E-05
              -1.6989980345890659E-03
               3.6508784082587113E-03
               4.2316058984386782E-04
              -3.6372833659174884E-03
              -1.3131952559476709E-03
               7.1412979583236535E-03
               7.1503935152884687E-03
               1.0649534544519997E-04
               2.5890025822084381E-03
               1.1656583982211873E-03
              -8.6714932281892112E-03
               2.3903620570137922E-03
              -6.1398679769503000E-05
              -3.3567671318400607E-03
               5.4965629324869774E-03
               8.3633341962806513E-04
               1.6305583321383544E-04
               2.3767225829967480E-03
              -1.7725449701323232E-03
               3.6239497570585899E-03
              -8.5499545930960293E-04
               1.0687454116723053E-03
              -4.9028731790954263E-03
               1.1092322682561453E-03
               3.0994399320221425E-03
               3.3515681963427416E-04
               7.1199392276520492E-04
              -6.6819564152787207E-04
              -1.4281911158650772E-03
               4.6658416173251610E-03
              -4.0445282933660386E-04
              -4.6045182981700721E-03
               2.1524171281350401E-03
              -5.3198136428210798E-03
              -1.4191729645608325E-03
               1.7830519276173907E-04
               3.8703884368060412E-03
              -9.9406368890803663E-04
              -4.6185791906218208E-04
               5.1934503975675549E-03
              -4.3610026862345589E-03
               6.1038167839797550E-03
              -9.3435401045445033E-04
              -3.8199572950899088E-03
               2.7107315018599248E-03
               3.1824066024326810E-03
               2.0922300159304727E-03
               2.3637229233902683E-03
              -6.3304184226343433E-03
              -2.4107320466986663E-03
               5.2158496628721901E-03
              -2.8542893976032722E-03
               1.6902727340017405E-03
               1.8691967417962104E-03
               5.5450493104907961E-03
              -2.3756302723127640E-03
               1.6219446814198593E-03
              -9.8133480138014612E-03
               8.4509924506005005E-03
               5.5340061312276227E-03
              -6.6778134377826178E-03
               9.7331997044178883E-04
              -1.5654538333601214E-03
              -1.8092249283998313E-04
               2.4179782352111686E-03
              -3.0092097647415927E-04
               4.3505941463775952E-04
               4.3135378528205374E-03
              -3.1973608588459186E-03
               4.3220572566700964E-03
               3.2398421714244998E-03
               1.9117905081847300E-04
               1.3206664952075480E-03
              -2.3267782897743372E-03
              -7.1147917723795662E-04
               1.4563939933809015E-03
              -4.9335837507881296E-03
               3.0018345376936653E-03
              -9.0874696765788372E-04
              -4.8953203986272682E-03
               3.1530070713239303E-04
              -1.9255136859030724E-03
              -6.9016073057605858E-03
               6.2716248476278541E-03
              -6.8086663136147745E-05
               1.7614380249145792E-03
              -7.2272613083998695E-03
               6.0252412040051207E-03
               6.0828839428103748E-03
              -6.2539727929074871E-04
               1.1999799208832101E-03
               3.9119439494386980E-04
               2.9827621622083985E-03
               4.8789605708308087E-03
               4.5624589532653704E-03
              -9.3068813445643290E-04
               6.1631573680857787E-03
               2.1232304075378353E-02
               1.8889869604792778E-02
               1.2161068702012008E-02
              -3.8629489447749882E-04
              -2.3884431173551188E-03
              -2.9948309231289561E-03
              -2.1580658445385344E-03
               6.5536285115829233E-03
               1.7196232401480238E-03
               2.9376329104144100E-03
              -3.1836876810683568E-03
              -5.2534851116819228E-03
               1.0837770531656036E-06
               1.0252637840067890E-03
              -2.1005667942941906E-03
              -2.5180431851181614E-03
               6.1541206726589978E-03
              -8.1346457339806291E-03
              -5.6388958069359153E-03
               6.7060347869550190E-03
              -1.3462836684993672E-03
               1.2181624694636230E-03
               9.7984920239005142E-04
               2.6753073174004154E-03
               8.8485421371200525E-04
               4.6698778649857456E-03
              -8.0874656211100560E-03
               4.2292461390138186E-03
              -3.9801970194170149E-04
              -3.8346548862615315E-03
               9.5789410251340894E-04
               2.1672397723800029E-03
               5.8472215732990949E-04
               5.8464910615809683E-03
              -2.5041958650550830E-03
               1.1518419708225344E-04
              -2.2810013768379857E-03
               5.4516123844244981E-03
              -4.5689649210319781E-03
               4.4184175489385283E-04
              -1.3605483668574260E-03
              -2.2170259748081306E-03
               2.4749354298953339E-03
               1.9973968151217030E-03
               4.9863697736136372E-04
              -2.7143655148671049E-03
              -1.8575451136613359E-03
               3.2412948718621641E-03
              -1.4245842983895199E-03
               2.0811105354951787E-03
               3.9198792495438927E-03
              -2.2683562267588561E-03
              -3.1913863490425553E-03
              -3.2303029226575324E-03
               1.0735395518364972E-03
               3.3916033356672219E-03
               5.9912492070451975E-03
              -4.7623976494436712E-04
               1.3848557369434129E-03
              -2.7936451370267597E-03
              -9.7536720753277383E-04
              -1.6072340665795083E-03
               2.6494986904463478E-03
               5.1945264026800357E-03
              -2.9575508416355431E-03
               1.9704321011580522E-03
               2.6852243849573628E-03
              -1.2669496607167821E-03
               2.3832873711773709E-03
               5.5625395052033202E-03
              -3.3368643657441517E-03
               2.4199660729036540E-03
               1.6723971470746243E-03
              -1.3781269720441252E-03
              -1.7224079451045092E-03
               2.5924348836962423E-03
               9.4123087086254303E-04
               4.1061701082706700E-04
               2.5865990436791247E-03
              -4.2435424901413003E-03
               1.0893407509094991E-03
               3.3547839811035899E-03
              -4.0422776184897251E-03
               3.6533530436895375E-03
               1.3195741754439372E-03
               1.7563678238468534E-03
              -7.3308006952204231E-04
               3.9187760920832313E-03
              -3.3359682778413059E-03
              -2.9766603809187817E-03
               2.4252234418670566E-03
              -3.1796159471216595E-03
               6.7943975911548670E-03
               1.2089397421797634E-03
              -3.0348123855475145E-03
               2.0362914961723970E-03
               7.5325143979110814E-03
              -6.1083792540279230E-04
              -1.1513306508142616E-02
               5.9130481545601366E-05
              -2.1806731945971003E-03
              -3.7542314571933298E-04
               1.4505067643829170E-03
              -1.8616376797916910E-03
              -1.9803841216898231E-03
               7.0757559590258652E-03
              -2.6469619625909199E-03
              -7.1061007814653340E-03
              -3.5749430976997045E-04
               1.6124008048154269E-03
              -7.5611067163127137E-04
              -8.9593545636905165E-04
              -1.3237623888646775E-03
              -1.1684268990999841E-03
              -5.0608880603349666E-03
              -1.4475282684733525E-03
               4.7572932533168945E-03
              -2.0071317201001424E-04
               3.4803848389750132E-03
               1.6988859809448477E-03
              -5.8968540148039467E-04
               3.7632590893719696E-03
              -5.0005667978890922E-04
              -5.6773371772204893E-03
               1.4177721709430200E-03
               4.7945566959996340E-03
               3.1668043186209929E-03
               8.9886210890556333E-05
               4.2422955766083665E-04
              -1.9770841104747622E-03
              -2.3389110796425755E-03
               1.8906810811514952E-03
               5.9720204520880144E-03
               1.8033137095331581E-03
              -4.6338171743040210E-03
              -1.3994819310368331E-03
               2.9223749856700110E-03
              -8.2413795402268061E-03
              -2.4874079112729064E-04
               2.1614868887927302E-03
               5.4666128545469118E-04
              -1.9797838561744791E-03
               2.1686075177330126E-03
              -4.7298296677812110E-03
              -3.0964162564531012E-03
               2.9307721673255053E-03
              -5.1051688589712632E-03
               6.4439410770872774E-04
               1.3729336838985155E-03
               1.2596936869916373E-03
               5.7800996279960956E-03
              -2.3816188167153076E-03
               1.9882566105232321E-03
              -5.1396546239065423E-03
              -1.5987920753648725E-03
               1.5930535946297370E-03
               2.4013565882956829E-03
              -5.5489232779687963E-03
               7.7353692866088443E-04
               7.3799490096537130E-03
              -1.0479044850434328E-03
              -3.1430240104991921E-03
              -3.8644928696877166E-03
              -1.4250426358812661E-03
               2.9163973391911008E-03
               3.0427318789364526E-03
               5.4629216144388504E-04
              -3.9486229623273328E-04
              -9.7460417121101759E-04
              -3.2266557434205666E-05
               8.9489882538572509E-03
              -2.0191627067474897E-03
              -3.1523759574650337E-03
               7.2471635388676671E-04
               1.8737692585139014E-03
               6.9136818602931012E-03
               6.0490884831528357E-03
              -3.6353461842318314E-03
              -2.4974619271258551E-03
              -4.4724092030159172E-04
              -7.3451226747411761E-04
              -9.0801597869255690E-03
               4.6055074198036328E-03
               2.2574445019909735E-04
               3.4463557815455747E-04
              -2.8132387313454670E-04
               2.8508596161737096E-03
              -2.3532349162417761E-03
              -1.0689983918310067E-03
               1.6626739095101752E-03
              -3.6079564408982500E-06
               2.4044825707002769E-03
              -1.9372106630304779E-03
              -2.7801250213275151E-04
               3.8237882238578279E-03
               2.5786260389234735E-03
              -2.7136839994086042E-03
              -2.8811104113206976E-03
               4.0783523025068153E-04
               2.0377213398851401E-03
              -3.9996255927105132E-03
              -8.4514192956060079E-04
               2.4782412394144244E-03
              -5.8680266081763942E-04
              -7.6902032554238573E-04
               6.4749891618525639E-03
              -6.9375977813797794E-04
               8.0735784635555885E-04
              -4.0573789553212261E-03
               8.5019377024709078E-04
              -7.4620159574827422E-04
              -1.7300839639212100E-04
               5.4540744391034842E-03
               4.7802971238280372E-04
               1.2384389788839974E-03
               2.0613329131910973E-03
              -9.6883495999192137E-04
              -5.2867634624879142E-03
               3.2058195893891642E-03
              -7.2522930785850950E-04
               8.3955533687432723E-04
               2.5720276730953938E-03
              -7.6293675905342090E-04
              -4.3712026494913672E-03
               2.7693151086440773E-03
              -6.5671194825440461E-03
               7.3078667151429168E-03
               5.8028919007618047E-03
               4.5418597389363952E-03
               3.1230547023518257E-03
              -2.1330198029973304E-03
              -9.1049208863294403E-04
              -1.2509525631049907E-02
               6.4547117896039995E-03
              -2.1428828047893047E-03
              -6.7338612548562922E-03
               1.5845288693501966E-03
              -1.8804259500193401E-03
               8.1101718786007475E-04
               2.8613909181105060E-04
               3.3844455096591836E-03
              -1.1085120154152276E-03
              -1.3168063154013351E-03
              -4.9226479003596727E-03
               2.4173141171667965E-03
               1.8909148692337441E-03
              -6.1992415349049236E-03
               4.0022949972222787E-03
               5.1671745957292542E-03
              -3.9433015901810193E-03
              -8.1132441240465479E-05
              -1.4646848911798634E-03
              -6.7154804025370554E-04
              -3.5550375907131347E-03
              -4.8088472709071218E-05
               6.2072356828640036E-04
              -1.4682985824842347E-03
               1.6610095646556059E-03
               3.9598278926612964E-03
               5.9045361253961684E-03
              -5.1891942693855463E-03
              -3.8194075343034551E-03
               6.0531264161490335E-04
              -2.6278552060786009E-03
               1.7122855805687162E-03
               9.8701135250198278E-09
               3.7000957893316023E-05
               7.7799927916941103E-04
               2.6898796427149360E-03
               7.4458847989473465E-06
              -2.0952645294582985E-04
              -1.1331759346041061E-03
              -3.8631969958391899E-03
              -3.4878251224113553E-04
               1.9205253876750253E-03
              -9.0439646050616490E-04
              -2.4011498053505926E-03
               9.8190737019564506E-03
               2.8089690055585572E-03
              -4.7725002843919022E-03
              -1.1023038270576091E-04
              -2.6823268511800427E-03
              -2.9214779499108184E-04
              -1.1712960617253139E-03
               5.6331785348473994E-04
              -5.3599730268549927E-03
              -4.9628962722005651E-05
               2.2826070564963013E-06
               7.3750669183292213E-03
               4.1013816191082578E-04
               4.6282059223846312E-03
              -1.8892063420337723E-04
              -1.2751761277745438E-04
               6.6956404080832231E-04
              -9.4684491391883608E-05
               5.2993323682244730E-03
              -8.8192193038590314E-03
              -3.6736065773878856E-03
               4.8461032881228078E-03
              -5.3160706323979231E-03
               1.6030334486041619E-03
              -3.5751854548176916E-03
              -4.8277806738960044E-03
              -6.0652696984459277E-03
               2.1100456782598542E-03
              -1.2128704838005257E-03
               3.6243357841031091E-03
               6.6593238792564662E-03
              -2.1220192508470842E-03
         &END THERMOSTAT_ENERGY
         &RNG_INIT
Wiener process for Thermostat # 1        1 F T T  -1.5505429657892764E+00         661802595.0        2026459976.0        3136775027.0        3268219721.0        1056216878.0        3744216088.0             12345.0             12345.0             12345.0             12345.0             12345.0             12345.0             12345.0             12345.0             12345.0             12345.0             12345.0             12345.0
Wiener process for Thermostat # 2        1 F T T   1.5766939834860993E-01        2521559082.0        1979391111.0        3972826820.0        2839528192.0        3960449033.0        3051881342.0        3692455944.0        1366884236.0        2968912127.0         335948734.0        4161675175.0         475798818.0        3692455944.0        1366884236.0        2968912127.0         335948734.0        4161675175.0         475798818.0
Wiener process for Thermostat # 3        1 F T T  -1.6802103653762466E+00        2464096834.0        3454226368.0         668358963.0        3607867155.0        2139338144.0        1695442074.0        1015873554.0        1310354410.0        2249465273.0         994084013.0        2912484720.0        3876682925.0        1015873554.0        1310354410.0        2249465273.0         994084013.0        2912484720.0        3876682925.0
Wiener process for Thermostat # 4        1 F T T  -9.2120442907176847E-01        3007810664.0         626544053.0           5688727.0        2019501767.0        4050809287.0        2188826537.0        2338701263.0        1119171942.0        2570676563.0         317077452.0        3194180850.0         618832124.0        2338701263.0        1119171942.0        2570676563.0         317077452.0        3194180850.0         618832124.0
Wiener process for Thermostat # 5        1 F T T   1.9586792436148486E+00        3119398129.0        2238966874.0        1731687009.0        1729823850.0        3912388439.0         182524877.0        1597262096.0        3906379055.0        3312112953.0        1016013135.0        4099474108.0         275305423.0        1597262096.0        3906379055.0        3312112953.0        1016013135.0        4099474108.0         275305423.0
Wiener process for Thermostat # 6        1 F T T  -2.2012851380256623E-01         527820745.0        2447393615.0         338698828.0         653439858.0         976211817.0        3944196308.0          97147054.0        3131372450.0         829345164.0        3691032523.0        3006063034.0        4259826321.0          97147054.0        3131372450.0         829345164.0        3691032523.0        3006063034.0        4259826321.0
Wiener process for Thermostat # 7        1 F T T  -1.2191095662093037E-02         167278661.0        2992638024.0        1197931920.0         124710794.0         889033703.0        2194094787.0         796079799.0        2105258207.0         955365076.0        2923159030.0        4116632677.0        3067683584.0         796079799.0        2105258207.0         955365076.0        2923159030.0        4116632677.0        3067683584.0
Wiener process for Thermostat # 8        1 F T T  -2.6373530393371375E-01        2923147749.0        3809475671.0         892364519.0        3114385888.0        3523415917.0        3402922821.0        3281794178.0        2616230133.0        1457051261.0        2762791137.0        2480527362.0        2282316169.0        3281794178.0        2616230133.0        1457051261.0        2762791137.0        2480527362.0        2282316169.0
Wiener process for Thermostat # 9        1 F T T  -1.2388913960989989E+00         276694386.0        3384434371.0        2194062143.0        3864498526.0        2498625561.0        4174179731.0        3777646647.0        1837464056.0        4204654757.0         664239048.0        4190510072.0        2959195122.0        3777646647.0        1837464056.0        4204654757.0         664239048.0        4190510072.0        2959195122.0
Wiener process for Thermostat # 10       1 F T T  -6.9271884074884071E-01         298842605.0        4183294382.0        3769908432.0        1623977651.0        3452521187.0         349927101.0        4215590817.0        3862461878.0        1087200967.0        1544910132.0         936383720.0        1611370123.0        4215590817.0        3862461878.0        1087200967.0        1544910132.0         936383720.0        1611370123.0
Wiener process for Thermostat # 11       1 F T T  -3.9199517781213300E-01        1183014876.0        2469777470.0        2706060047.0        1374668043.0         490283634.0         131761905.0        1683636369.0         362165168.0         814316280.0         869382050.0         980203903.0        2062101717.0        1683636369.0         362165168.0         814316280.0         869382050.0         980203903.0        2062101717.0
Wiener process for Thermostat # 12       1 F T T   1.2248374085476998E+00         744312290.0        1838623065.0        1895433531.0        2930723882.0        3034111406.0        1223209339.0         272317999.0         166758548.0         310112982.0         201045826.0        1680231254.0         118290799.0         272317999.0         166758548.0         310112982.0         201045826.0        1680231254.0         118290799.0
Wiener process for Thermostat # 13       1 F T T   1.6053528300026945E-02         341235087.0         365462780.0         607175623.0        3292057964.0        1611524565.0         256574977.0        2245755202.0        1652682525.0        2865544364.0         721509566.0         209733568.0         592362218.0        2245755202.0        1652682525.0        2865544364.0         721509566.0         209733568.0         592362218.0