 # Version information for this restart file 
 # current date 2022-11-29 20:46:36.004
 # current working dir /scratch/work/courses/CHEM-GA-2671-2022fa/mf4024/comp-lab-class/Week12/Runs/Protons
 # Program compiled at                              Sat Dec 12 18:27:15 EST 2020
 # Program compiled on                                         cs001.nyu.cluster
 # Program compiled for                                                nyu-intel
 # Source code revision number                                       git:8c64c6e
 &GLOBAL
   PRINT_LEVEL  LOW
   PROJECT_NAME proton_aimd_1ns_every0.5fs
   RUN_TYPE  MD
   WALLTIME 21600
 &END GLOBAL
 &MOTION
   &GEO_OPT
     OPTIMIZER  BFGS
     MAX_ITER  100
     MAX_DR     3.0000000000000001E-03
     &BFGS
     &END BFGS
   &END GEO_OPT
   &MD
     ENSEMBLE  NVT
     STEPS  2000
     TIMESTEP     4.9999999999999994E-01
     STEP_START_VAL  1999
     TIME_START_VAL     9.9949999999998238E+02
     ECONS_START_VAL    -1.1027290848025568E+03
     TEMPERATURE     3.0000000000000000E+02
     &THERMOSTAT
       TYPE  GLE
       REGION  MASSIVE
       &GLE
         NDIM  5
         A_SCALE     1.0000000000000000E+00
         A_LIST     1.8595758612559999E+02    2.7263853498399998E-01    1.1526100454610001E+01   -3.6414578262600003E+01 \
             2.3173375816020001E+02
         A_LIST    -2.7809524712060002E-01    8.5951591808710006E-05    7.2189048017650004E-01   -1.9844539343859999E-01 \
             4.2409257583420001E-01
         A_LIST    -1.4825808131210000E+01   -7.2189048017650004E-01    1.3590902121280000E+00    5.1498896280349999E+00 \
            -9.9949268450990001E+00
         A_LIST    -1.0372189126880000E+01    1.9844539343859999E-01   -5.1498896280349999E+00    2.6661910891169999E+01 \
             1.1507715495310000E+01
         A_LIST     2.1801346360420001E+02   -4.2409257583420001E-01    9.9949268450990001E+00   -1.1507715495310000E+01 \
             3.0958394565589998E+02
         &THERMOSTAT_ENERGY
               4.3150355042620662E-03
               4.7416722184714360E-03
               1.9118960238702983E-03
               6.1097036786511771E-03
              -1.4002660236156412E-02
              -3.8596446637905301E-03
              -5.9713841299608630E-03
              -5.4094768846202094E-03
               6.5308835439104327E-03
              -1.8149612598696827E-04
               1.0056216303369031E-02
               4.6070336353035805E-03
              -5.6316955105674641E-03
              -6.9795774831774961E-03
              -8.8097717156526397E-04
              -5.6702480543432245E-03
               1.4244091254058920E-02
              -1.0656976588878169E-02
               4.7441411547464955E-03
              -2.3680496344567641E-03
              -6.7324495117257041E-03
               1.1620228395994985E-02
              -1.9912569940496179E-02
              -2.3910440572641094E-03
               5.1846160979893219E-03
              -8.7882660870599177E-03
               1.9120242000456695E-03
               1.6981299014266673E-03
              -6.2088607660044394E-04
               4.0552833882742789E-03
              -2.6385645044543688E-03
              -2.6280046955201018E-03
               9.7147428944669538E-03
               4.3391333772604592E-03
               5.2075747407503573E-03
               3.4427626253224833E-03
               1.4528206600696323E-03
              -3.5067823117952094E-03
               6.9220380794774209E-04
               5.7456449980481002E-04
               1.1869568058162309E-02
              -8.2177735371112923E-03
               7.9237806688686498E-03
               6.8105726021162579E-03
              -3.9111818784263496E-03
              -1.3011229420821432E-03
              -8.7531990842500736E-03
               2.6488230206629308E-03
              -5.4581188871852140E-04
               9.3269855558157148E-05
              -1.8188471221707572E-03
               3.9473793784999579E-03
              -1.3608492188590619E-02
              -7.6759510760826956E-04
              -8.4948293221383774E-03
               2.4419700425625372E-03
               2.4731851050398147E-03
              -8.1405547370100202E-03
               1.4444274930528829E-02
               6.8074258423024012E-03
              -9.0880946158137244E-03
              -6.3841995175659772E-03
               2.2679835009169681E-02
               3.3558395646725027E-04
               7.2149410673027319E-03
               7.5395075747023343E-04
               8.0055439895566939E-03
               1.6295091621686769E-02
              -6.6890268449717079E-03
              -7.1750692393182059E-03
              -9.5206692355616872E-03
              -6.1344790669234798E-04
              -1.0660766572967917E-03
               6.4030214447815641E-03
              -6.7476240585474731E-03
              -8.5905375409174190E-03
               1.4380766535684106E-02
              -1.2959810522068451E-03
               2.0719774109192384E-02
              -1.5412639271384502E-02
              -1.4166998573232332E-03
              -3.2752400140888846E-03
               6.0198492985741132E-03
               2.8816214988538454E-03
               7.3683541179396289E-04
               8.6552283185642193E-03
              -7.5306412351818322E-04
              -1.3000438713600085E-02
               4.5343126665285151E-04
              -2.0359279889943919E-03
              -2.1481778410811199E-03
              -7.2385217669940893E-03
               4.4418527643327226E-03
              -8.7682839636667956E-03
              -8.8610758540674933E-03
               1.1716293268050217E-02
               6.3797393751558289E-03
               2.4839024953434391E-03
               2.1369155698504816E-04
              -4.4909621033919383E-04
               1.7916601777723154E-03
              -3.2039982077560363E-03
              -3.9489851510647643E-03
               6.6648026056010754E-03
              -4.4143563688528089E-03
               1.6661385531593697E-02
               1.9471353402073115E-02
               7.7388983022445507E-03
               2.8163847002542959E-03
              -3.4403483480018363E-03
               3.5889960948490285E-03
               9.4818420035103490E-03
              -9.8220326294145635E-03
               3.8988535701116656E-03
               4.1613894146885280E-03
               2.3937809591359173E-03
              -1.0097039452885922E-02
              -7.5528956095993098E-04
               9.3907110650972496E-04
               5.2725191146373637E-03
               3.3709739356551816E-03
               4.4725953187321268E-03
               1.1345665838287935E-03
               1.1243770644610580E-02
              -1.3956792497106012E-02
              -6.9642634440403028E-03
               1.4795244147555930E-03
              -2.0499990217351569E-03
               3.9966234029986192E-04
               7.6792974473582206E-03
              -9.2411137418480713E-03
               6.3168455766798304E-03
              -1.5719044752648468E-03
               9.6612792623226114E-04
               4.8884571719568599E-03
               3.4088185746094122E-03
              -3.8263357466177947E-03
              -7.9190744526699188E-03
               1.0365095231070346E-02
              -8.8544135058617624E-03
              -4.3129913415245252E-03
               8.1079837205877501E-03
               4.9836496253014666E-03
               4.1095581363514728E-03
              -6.1289071993129805E-03
              -1.8034006305341029E-03
               4.8403845611706448E-05
               4.4143931764469126E-03
              -8.4563748613897573E-03
               3.7536191507193694E-03
              -1.2715904734596370E-02
               1.7077665191639654E-02
              -1.0111060844653482E-02
               2.6685893453443480E-03
               3.1135075892740421E-03
              -1.5609817356732774E-04
               2.2941854299352838E-03
              -1.4513781337526783E-03
              -7.2698694354389739E-03
              -3.1846532312900758E-04
               4.1443276470397332E-03
              -1.5578402514042299E-03
              -8.0752048907178344E-04
               3.5905793943095819E-03
               6.1272680015780762E-03
               2.5633037166811361E-02
               1.5470654934113264E-03
              -1.7237664683411025E-02
               7.8929474664540702E-04
              -2.4858880791166337E-03
               1.5781820052350932E-03
              -5.6491866850415665E-03
               6.0332440644471326E-03
              -1.2741574699539343E-02
               9.2201139375596135E-03
               9.2779548644752151E-03
              -7.2031924717258699E-03
              -5.9977309110172614E-03
               9.0804267592714920E-03
               1.6589197547086654E-02
               2.0740981666816766E-03
              -4.8954892656478729E-03
               3.5171240364027828E-05
              -1.4334070709436156E-02
               1.0336265006029452E-02
              -3.9050878374773772E-03
              -1.6450179910827919E-02
               1.0560168974713756E-02
              -5.5894503448852420E-03
               1.6842937285209284E-03
               3.2459758715730749E-03
              -5.6836529744492409E-04
              -6.5792900389754637E-04
               1.8156876278488738E-02
              -5.6821224136336694E-03
              -3.8240610134516522E-03
              -1.6022455050353011E-03
               5.4755057689795114E-03
               1.1413563316572477E-03
               5.5348004008577336E-03
              -2.9643145451888945E-03
              -6.5559675970088417E-05
               5.1656240434918314E-03
               1.3968270189403723E-03
              -4.2001578203521833E-03
               5.3753884810337571E-03
              -2.3937436078699578E-03
              -1.5179202971726839E-03
               5.2936201561326768E-03
              -1.5078720092183886E-03
               5.6674050890036017E-03
              -1.0372003013758417E-02
               1.3226954889982498E-02
               1.9126709340952066E-03
              -3.8242598457001583E-05
               1.7520733081000605E-03
              -3.8504112697791276E-03
               9.7273198714645931E-03
               4.4369882157026738E-03
              -3.7512445566852742E-03
               4.9429932404537746E-03
              -7.7974967574088640E-03
              -9.8809940718132660E-03
               2.4625796871186384E-03
               9.0783780034825526E-03
               3.1562046491445282E-03
               2.5858324694371035E-03
               3.1940034268619871E-03
               9.2416872916242128E-03
              -1.4631247527126311E-02
              -1.3898742676610061E-03
               5.7544902449227506E-03
               8.5326848116721154E-03
              -5.4797586392559628E-03
               1.7373709836226794E-03
              -7.8567008439476855E-04
              -3.0879838850044667E-03
               6.4884323178756266E-03
               4.5759013177842159E-03
              -5.2841033377674007E-04
               5.5973714125315847E-03
              -2.3876655809807923E-03
              -5.5685162129205735E-03
               1.6951577237308514E-03
               6.7491234502244967E-03
              -6.2115557191295956E-04
              -7.4242563173588594E-03
               8.2615933260291180E-03
              -6.5589563655557104E-04
              -9.2222478667365500E-03
               5.3602684705554302E-03
              -6.1777860005261583E-03
              -9.8901402604433322E-03
              -2.0491507137581372E-03
               5.9549028198570735E-03
              -2.8962643120250208E-03
               2.0376665143077972E-02
              -8.4699949194173424E-03
               6.8798249139033112E-03
              -2.3616815231261353E-02
               1.3614395573870924E-02
               6.4942709369586438E-04
               5.6291170542917691E-04
              -2.4121715470892626E-03
               5.1196754406265532E-03
              -4.6813800763813879E-03
               8.3060860279264050E-03
              -3.1169328587843017E-03
               1.4052091525058536E-02
               1.0564795644039648E-02
               1.5110820895864702E-02
               1.6197705964379125E-02
               1.8306294870540363E-02
               6.5949591447625241E-03
               3.3800855355931888E-03
              -4.5832469725580862E-03
              -8.7688096015260848E-03
               3.7106624691158499E-03
              -3.0702042710643159E-03
               1.5121680759580097E-02
              -9.7466617878658179E-03
              -1.1740240019522142E-02
               4.1105673595983232E-03
              -1.0189435525025463E-03
               8.0788973987222913E-04
              -4.3647706495805330E-03
               5.5622810237245870E-03
              -4.1462131241044422E-03
              -9.8975102735084763E-03
              -2.3498896318571152E-03
               9.6841388734246053E-03
               6.1007360407466342E-03
              -4.2712233438754977E-03
              -3.0453024240467968E-04
               1.1128571006001945E-03
               9.5003754480215748E-03
              -1.2435022023965871E-02
               1.1992203098760992E-02
               1.1914055186823036E-02
              -1.1962663082763590E-02
               4.0412054746238359E-03
              -3.0992426665485059E-03
               6.6679613641672771E-03
               1.0971541353285151E-02
              -3.4484941831548974E-03
              -3.5173874358581602E-03
               1.9870483570987911E-04
               6.2013275179919839E-03
              -6.7733034865465735E-03
               2.8518607913997386E-03
              -2.2088259630417117E-03
              -2.8127286052092790E-03
              -2.1818494840469427E-03
              -4.9338185198885684E-03
               2.8675316347520651E-03
               3.8485440070098212E-04
              -1.4455904773400053E-02
               7.6383870087591513E-03
              -1.5839547851426109E-02
              -7.4519680894440180E-03
               6.3031831173083709E-03
               5.2971114366570796E-03
               4.1186184912087838E-03
               4.9687304542752751E-04
              -7.1645701579066299E-03
               1.6959569617987499E-02
              -1.2807927146462382E-03
               8.1873679008303869E-03
              -3.1691450258541235E-03
               4.5928648251316153E-04
              -7.5685253947655531E-03
               7.9218985315419801E-04
               3.0971858916720978E-03
              -2.6271348981795374E-03
               4.1111352867143382E-03
               1.8278827440091315E-03
               3.3435247519161626E-03
              -1.1753646874239658E-03
               5.4091947493467539E-03
               2.0552997299206652E-03
              -9.6704653285190883E-03
               6.0324795992997872E-03
               3.9480908023530725E-03
              -8.8110788718551972E-05
              -7.2495673359440869E-03
               3.5340675335771275E-03
               4.5243971484062841E-03
              -1.2637687226409143E-02
               8.8721038306259596E-03
               4.2203818505459007E-03
              -6.7843428278680591E-04
               1.3508982126139968E-03
              -1.1631657902533964E-02
               4.9041061197951513E-03
               4.2719504280842131E-03
               7.8864305112572605E-04
               8.8726440186126347E-04
              -1.2685511420133124E-02
              -4.0744749430279299E-03
               5.6547179309570147E-03
               5.4865492550949411E-03
              -3.9392687307191043E-03
               1.4022305897051796E-02
               2.3935065749730393E-04
              -6.6093712542691016E-03
              -2.9111352663670422E-03
               8.2168391086473985E-03
              -1.6743786037220925E-03
              -1.3007932260468086E-02
               6.2983685032964127E-03
               1.3779109344616977E-03
               1.9781394783805967E-03
               1.1153909994229888E-03
              -1.3600028518533892E-03
               5.4687952195082712E-03
               1.1177088392796587E-02
              -5.6770002362134687E-03
              -1.7000597913031774E-02
               9.2584494998572669E-04
               9.6842540379114168E-03
               3.2723210104853816E-03
               6.3379675086255123E-03
              -3.5422094088699936E-03
              -3.3549562387133391E-03
              -1.1721153448987751E-02
              -3.1430191933618174E-03
               5.8475591712514709E-03
              -6.2659373410955035E-03
               3.8723091944488819E-03
               5.5415780603953711E-03
              -5.6149517615898164E-03
               5.3207611512119364E-03
               1.6367111061945465E-03
              -4.1655444808504118E-03
               1.0356860460824381E-02
              -2.0497348213555332E-03
              -1.5076204872209106E-03
              -2.1730360267470813E-03
               2.5244926925735976E-04
              -6.2650051212668470E-04
               6.2146373601086411E-03
              -1.2547200418168093E-03
              -9.0123157270874180E-03
              -1.8760271117134869E-03
               4.5375279333280116E-03
              -8.3121165330848272E-04
              -4.1941996419467744E-03
              -2.7810251558092439E-03
               2.3381964275538919E-03
              -1.0807183459578126E-03
               3.5043916034516957E-04
              -4.9679648051639564E-03
              -6.3499840682872425E-04
              -4.3082281834149498E-03
               7.9012631602608536E-03
               1.5806286636280557E-03
              -1.3768976082102454E-03
               2.1484026727801495E-03
               2.1263789605300205E-03
              -4.9237915881650274E-03
               3.9344615524474734E-03
               9.1526574739842891E-03
              -7.4659203318083655E-03
              -2.1640612131394810E-03
               1.2853196157543993E-02
              -8.7159268478644199E-03
               5.8086897478559015E-04
               7.5750830132531534E-04
               6.3526295452538996E-03
              -2.7724013494547840E-03
              -2.0448861776946018E-03
              -4.8602491474173254E-03
              -1.3355368627637379E-02
               1.0441932353231986E-02
               5.8203237731067571E-03
               3.5731263987068534E-04
              -6.5037162033848069E-03
              -3.4942660396437264E-03
              -8.7925724452030916E-03
               4.3019843874353460E-03
               6.1202121722175769E-03
               2.7928296090580979E-03
               6.3540123224714617E-04
               1.0044893837663697E-04
               9.8585637035922567E-05
               8.0287496367125802E-03
               6.0306687937653680E-03
               1.1089703212530274E-02
               3.5444340298885716E-03
              -5.7047962007672906E-03
              -6.3474664194137914E-03
              -8.3963990251989806E-03
               3.2392977433943091E-03
               3.3187654746187935E-03
               1.4759397627139488E-03
              -1.5632108664858350E-04
              -3.2847002937573090E-03
              -2.3354683140004003E-02
               5.3333093224023883E-03
              -9.9174319643833189E-03
               2.1212713068519080E-02
               1.2404325929616596E-02
              -2.2737063246029139E-03
               4.7050158670175549E-03
               2.8214223106565834E-04
              -3.1622470756719505E-03
              -9.4019675431613811E-03
               4.3193839614091948E-04
               1.0583260126553964E-02
              -6.2969337742713669E-03
              -7.3087260804967982E-03
              -2.6377623823811243E-03
               5.0883358958529988E-03
              -2.8271246945026380E-03
              -7.7632145731940400E-03
               1.8378497145827066E-02
               2.4259735350911616E-03
               2.8945821427168719E-03
               7.2511135514913751E-03
               3.4180212806800931E-04
               5.2128893938766015E-03
              -6.2620250781968232E-03
               1.2360241554344979E-02
               4.8732212877748565E-03
              -1.0600782384985164E-03
              -1.3338386370046801E-03
              -4.3991282037942970E-03
              -2.5570141967320064E-03
               1.2747257672552866E-02
               2.0883506035759766E-03
               8.0696104631130666E-03
               8.9990631061564810E-03
               1.1053723292827635E-02
              -9.6160760409914128E-03
               9.3335787004843857E-04
               3.0056744538778544E-03
               4.0819323461192322E-03
              -7.3651079815802781E-03
               7.7380441492522678E-04
               6.2696308145082412E-03
              -3.8719725988562350E-03
               1.7105766668476997E-02
              -2.2596924844637878E-02
               1.3914122891010393E-02
               4.4980753224714157E-03
              -1.1575719414778590E-02
              -5.5021093393926336E-03
              -2.8660224517141659E-04
               7.9402674168339970E-03
               3.5892875362797606E-03
              -1.6107935885381500E-03
               1.0947185350034446E-02
              -1.9076028570162533E-03
              -4.2288887029288159E-03
               6.9054603337053546E-03
              -2.1068836039109244E-02
              -6.7993009253600372E-03
              -1.7401290350272129E-03
               8.0372159942149503E-03
               1.7192679988124911E-02
              -1.9599820083797494E-02
              -3.4001339854194852E-03
               1.5385546732633053E-03
               2.0730695482155648E-03
               6.6570548018912582E-04
               5.1660357760817035E-03
              -6.7082548352193003E-03
              -3.4517238925502926E-03
               8.3108496369201732E-03
              -1.6584872315259498E-03
              -4.7579714368201379E-03
               3.4509127270397010E-03
              -8.3198748766874220E-03
              -6.4101779765726374E-03
              -2.2450455290217945E-03
              -4.6647047394011536E-03
              -2.0943125919245936E-03
              -2.1174912739235457E-03
               6.6399742062385218E-03
               3.3393170564063289E-03
               6.3319870333525602E-03
               3.2557413815724910E-03
              -1.0800422281098388E-02
               2.3610544715313569E-03
               2.3855749390353485E-04
              -6.2917616887387968E-03
              -2.0744638815757047E-03
               8.3371590463520127E-03
               1.0484637318586204E-02
               3.2266624641859153E-03
               1.5010416547171572E-02
              -1.0099007958896098E-02
              -3.5211494387680422E-03
              -4.4329517354539305E-03
               4.3298737546560231E-03
              -2.0577604549391888E-03
              -7.1302673094314284E-03
               4.0765940670611312E-03
               1.4171923637014293E-02
               9.6184240440053432E-03
               9.1895133434054927E-04
               5.4480985677472097E-03
              -1.3639973305705360E-03
               1.0555370400035376E-04
              -5.5563331503254779E-03
               7.1462429069335488E-04
               1.5111621818718072E-03
              -4.0822578699803921E-03
              -7.1709165317437812E-03
               3.8850296457983492E-03
              -2.9336923494235625E-03
               8.0112778458406590E-05
              -7.1781658076877763E-03
              -1.3179800266671865E-02
               3.3050747344084965E-03
               1.4149378683884481E-02
               1.1157219366143473E-02
              -9.5447518506743701E-03
               1.7796841302055279E-03
         &END THERMOSTAT_ENERGY
         &RNG_INIT
Wiener process for Thermostat # 1        1 F T T  -1.3877964172148927E+00        3819968671.0        1923139303.0        2505174482.0        1129753110.0        1102497896.0        2318485114.0             12345.0             12345.0             12345.0             12345.0             12345.0             12345.0             12345.0             12345.0             12345.0             12345.0             12345.0             12345.0
Wiener process for Thermostat # 2        1 F T T   5.9690975612399577E-01        1863048650.0        1167059563.0        4156553466.0        2659491592.0        2500563110.0        2967422577.0        3692455944.0        1366884236.0        2968912127.0         335948734.0        4161675175.0         475798818.0        3692455944.0        1366884236.0        2968912127.0         335948734.0        4161675175.0         475798818.0
Wiener process for Thermostat # 3        1 F T T  -1.9577134425325560E-01        2029679022.0        1992813296.0        1475024831.0        3744841000.0        4231717232.0        1872789393.0        1015873554.0        1310354410.0        2249465273.0         994084013.0        2912484720.0        3876682925.0        1015873554.0        1310354410.0        2249465273.0         994084013.0        2912484720.0        3876682925.0
Wiener process for Thermostat # 4        1 F T T  -5.5423907268054418E-01         972191078.0        3239779000.0        2283144792.0        4029872124.0        2868550739.0         388907277.0        2338701263.0        1119171942.0        2570676563.0         317077452.0        3194180850.0         618832124.0        2338701263.0        1119171942.0        2570676563.0         317077452.0        3194180850.0         618832124.0
Wiener process for Thermostat # 5        1 F T T  -3.6874052824979625E-01         246061856.0        2033992607.0        4208640487.0        3425480013.0        1713937449.0        3033523858.0        1597262096.0        3906379055.0        3312112953.0        1016013135.0        4099474108.0         275305423.0        1597262096.0        3906379055.0        3312112953.0        1016013135.0        4099474108.0         275305423.0
Wiener process for Thermostat # 6        1 F T T   5.7875332706651861E-01        4268450248.0        1240555256.0        2123119467.0         299173953.0        2368881629.0        2698044585.0          97147054.0        3131372450.0         829345164.0        3691032523.0        3006063034.0        4259826321.0          97147054.0        3131372450.0         829345164.0        3691032523.0        3006063034.0        4259826321.0
Wiener process for Thermostat # 7        1 F T T  -1.8983145396195047E+00        4260312323.0         705196258.0         937296972.0        1373994383.0        3179698350.0        3757299263.0         796079799.0        2105258207.0         955365076.0        2923159030.0        4116632677.0        3067683584.0         796079799.0        2105258207.0         955365076.0        2923159030.0        4116632677.0        3067683584.0
Wiener process for Thermostat # 8        1 F T T  -3.3116685260855833E-01        2351531572.0        3477839446.0        1021048571.0        1975906828.0        1893564842.0         777663015.0        3281794178.0        2616230133.0        1457051261.0        2762791137.0        2480527362.0        2282316169.0        3281794178.0        2616230133.0        1457051261.0        2762791137.0        2480527362.0        2282316169.0
Wiener process for Thermostat # 9        1 F T T   1.4386427466100791E+00        3265425123.0        2999969280.0        3048908474.0        1047403656.0         134736569.0        4209884843.0        3777646647.0        1837464056.0        4204654757.0         664239048.0        4190510072.0        2959195122.0        3777646647.0        1837464056.0        4204654757.0         664239048.0        4190510072.0        2959195122.0
Wiener process for Thermostat # 10       1 F T T  -2.3947144259907721E-01        2825100143.0        2025717467.0        3827127036.0        1422979577.0        1026966836.0        1481957392.0        4215590817.0        3862461878.0        1087200967.0        1544910132.0         936383720.0        1611370123.0        4215590817.0        3862461878.0        1087200967.0        1544910132.0         936383720.0        1611370123.0
Wiener process for Thermostat # 11       1 F T T   2.8146058156813852E-01        3161233422.0        2404453347.0        1673723662.0         906337025.0          73303549.0        1016746719.0        1683636369.0         362165168.0         814316280.0         869382050.0         980203903.0        2062101717.0        1683636369.0         362165168.0         814316280.0         869382050.0         980203903.0        2062101717.0
Wiener process for Thermostat # 12       1 F T T  -6.6211933450441895E-01         208754144.0        1983222026.0        1378772639.0         460703296.0         651350573.0        3898252829.0         272317999.0         166758548.0         310112982.0         201045826.0        1680231254.0         118290799.0         272317999.0         166758548.0         310112982.0         201045826.0        1680231254.0         118290799.0
Wiener process for Thermostat # 13       1 F T T   2.2418582236869027E-02         545702192.0         878923556.0         464381839.0        1267067492.0        3004786620.0        2258194530.0        2245755202.0        1652682525.0        2865544364.0         721509566.0         209733568.0         592362218.0        2245755202.0        1652682525.0        2865544364.0         721509566.0         209733568.0         592362218.0